Automatically generated mesh: SCF=15, 0.04(36), 3.84X4, GXKGL
    165      
Reciprocal lattice
    0.00000000000000    0.00000000000000    0.00000000000000             1
    0.16666666666667    0.00000000000000    0.00000000000000             8
    0.33333333333333    0.00000000000000    0.00000000000000             8
    0.50000000000000    0.00000000000000    0.00000000000000             4
    0.16666666666667    0.16666666666667    0.00000000000000             6
    0.33333333333333    0.16666666666667    0.00000000000000            24
    0.50000000000000    0.16666666666667    0.00000000000000            24
   -0.33333333333333    0.16666666666667    0.00000000000000            24
   -0.16666666666667    0.16666666666667    0.00000000000000            12
    0.33333333333333    0.33333333333333    0.00000000000000             6
    0.50000000000000    0.33333333333333    0.00000000000000            24
   -0.33333333333333    0.33333333333333    0.00000000000000            12
    0.50000000000000    0.50000000000000    0.00000000000000             3
    0.50000000000000    0.33333333333333    0.16666666666667            24
   -0.33333333333333    0.33333333333333    0.16666666666667            24
0.00000000  0.00000000  0.00000000   0.00
0.01388889  0.00000000  0.01388889   0.00
0.02777778  0.00000000  0.02777778   0.00
0.04166666  0.00000000  0.04166666   0.00
0.05555555  0.00000000  0.05555555   0.00
0.06944444  0.00000000  0.06944444   0.00
0.08333333  0.00000000  0.08333333   0.00
0.09722222  0.00000000  0.09722222   0.00
0.11111110  0.00000000  0.11111110   0.00
0.12499999  0.00000000  0.12499999   0.00
0.13888888  0.00000000  0.13888888   0.00
0.15277778  0.00000000  0.15277778   0.00
0.16666666  0.00000000  0.16666666   0.00
0.18055554  0.00000000  0.18055554   0.00
0.19444445  0.00000000  0.19444445   0.00
0.20833333  0.00000000  0.20833333   0.00
0.22222221  0.00000000  0.22222221   0.00
0.23611109  0.00000000  0.23611109   0.00
0.24999999  0.00000000  0.24999999   0.00
0.26388890  0.00000000  0.26388890   0.00
0.27777776  0.00000000  0.27777776   0.00
0.29166666  0.00000000  0.29166666   0.00
0.30555555  0.00000000  0.30555555   0.00
0.31944445  0.00000000  0.31944445   0.00
0.33333331  0.00000000  0.33333331   0.00
0.34722221  0.00000000  0.34722221   0.00
0.36111107  0.00000000  0.36111107   0.00
0.37500000  0.00000000  0.37500000   0.00
0.38888890  0.00000000  0.38888890   0.00
0.40277776  0.00000000  0.40277776   0.00
0.41666666  0.00000000  0.41666666   0.00
0.43055552  0.00000000  0.43055552   0.00
0.44444442  0.00000000  0.44444442   0.00
0.45833334  0.00000000  0.45833334   0.00
0.47222218  0.00000000  0.47222218   0.00
0.48611110  0.00000000  0.48611110   0.00
0.49999997  0.00000000  0.49999997   0.00
0.49456522  0.01630435  0.51086956   0.00
0.48913044  0.03260870  0.52173913   0.00
0.48369566  0.04891304  0.53260869   0.00
0.47826087  0.06521739  0.54347825   0.00
0.47282609  0.08152174  0.55434781   0.00
0.46739131  0.09782609  0.56521738   0.00
0.46195653  0.11413044  0.57608694   0.00
0.45652175  0.13043478  0.58695650   0.00
0.45108697  0.14673914  0.59782606   0.00
0.44565219  0.16304348  0.60869563   0.00
0.44021741  0.17934784  0.61956519   0.00
0.43478262  0.19565217  0.63043475   0.00
0.42934781  0.21195652  0.64130437   0.00
0.42391303  0.22826087  0.65217394   0.00
0.41847825  0.24456522  0.66304350   0.00
0.41304347  0.26086956  0.67391306   0.00
0.40760869  0.27717391  0.68478262   0.00
0.40217391  0.29347828  0.69565219   0.00
0.39673913  0.30978259  0.70652175   0.00
0.39130434  0.32608697  0.71739131   0.00
0.38586956  0.34239131  0.72826087   0.00
0.38043478  0.35869569  0.73913044   0.00
0.37500000  0.37500000  0.75000000   0.00
0.36684781  0.36684781  0.73369563   0.00
0.35869566  0.35869566  0.71739131   0.00
0.35054347  0.35054347  0.70108694   0.00
0.34239131  0.34239131  0.68478262   0.00
0.33423913  0.33423913  0.66847825   0.00
0.32608697  0.32608697  0.65217394   0.00
0.31793478  0.31793478  0.63586956   0.00
0.30978262  0.30978262  0.61956525   0.00
0.30163044  0.30163044  0.60326087   0.00
0.29347825  0.29347825  0.58695650   0.00
0.28532609  0.28532609  0.57065219   0.00
0.27717394  0.27717394  0.55434787   0.00
0.26902175  0.26902175  0.53804350   0.00
0.26086956  0.26086956  0.52173913   0.00
0.25271738  0.25271738  0.50543475   0.00
0.24456522  0.24456522  0.48913044   0.00
0.23641305  0.23641305  0.47282609   0.00
0.22826087  0.22826087  0.45652175   0.00
0.22010869  0.22010869  0.44021738   0.00
0.21195652  0.21195652  0.42391303   0.00
0.20380434  0.20380434  0.40760869   0.00
0.19565217  0.19565217  0.39130434   0.00
0.18750000  0.18750000  0.37500000   0.00
0.17934784  0.17934784  0.35869569   0.00
0.17119566  0.17119566  0.34239131   0.00
0.16304348  0.16304348  0.32608697   0.00
0.15489131  0.15489131  0.30978262   0.00
0.14673914  0.14673914  0.29347828   0.00
0.13858697  0.13858697  0.27717394   0.00
0.13043478  0.13043478  0.26086956   0.00
0.12228262  0.12228262  0.24456525   0.00
0.11413044  0.11413044  0.22826087   0.00
0.10597825  0.10597825  0.21195650   0.00
0.09782609  0.09782609  0.19565219   0.00
0.08967391  0.08967391  0.17934781   0.00
0.08152175  0.08152175  0.16304350   0.00
0.07336956  0.07336956  0.14673913   0.00
0.06521738  0.06521738  0.13043475   0.00
0.05706522  0.05706522  0.11413044   0.00
0.04891303  0.04891303  0.09782606   0.00
0.04076087  0.04076087  0.08152175   0.00
0.03260869  0.03260869  0.06521738   0.00
0.02445653  0.02445653  0.04891306   0.00
0.01630434  0.01630434  0.03260869   0.00
0.00815216  0.00815216  0.01630431   0.00
0.00000000  0.00000000  0.00000000   0.00
0.01136364  0.01136364  0.01136364   0.00
0.02272727  0.02272727  0.02272727   0.00
0.03409091  0.03409091  0.03409091   0.00
0.04545454  0.04545454  0.04545454   0.00
0.05681818  0.05681818  0.05681818   0.00
0.06818182  0.06818182  0.06818182   0.00
0.07954545  0.07954545  0.07954545   0.00
0.09090909  0.09090909  0.09090909   0.00
0.10227272  0.10227272  0.10227272   0.00
0.11363636  0.11363636  0.11363636   0.00
0.12499999  0.12499999  0.12499999   0.00
0.13636364  0.13636364  0.13636364   0.00
0.14772727  0.14772727  0.14772727   0.00
0.15909091  0.15909091  0.15909091   0.00
0.17045453  0.17045453  0.17045453   0.00
0.18181817  0.18181817  0.18181817   0.00
0.19318181  0.19318181  0.19318181   0.00
0.20454544  0.20454544  0.20454544   0.00
0.21590909  0.21590909  0.21590909   0.00
0.22727272  0.22727272  0.22727272   0.00
0.23863636  0.23863636  0.23863636   0.00
0.24999999  0.24999999  0.24999999   0.00
0.26136363  0.26136363  0.26136363   0.00
0.27272728  0.27272728  0.27272728   0.00
0.28409091  0.28409091  0.28409091   0.00
0.29545453  0.29545453  0.29545453   0.00
0.30681816  0.30681816  0.30681816   0.00
0.31818181  0.31818181  0.31818181   0.00
0.32954544  0.32954544  0.32954544   0.00
0.34090906  0.34090906  0.34090906   0.00
0.35227272  0.35227272  0.35227272   0.00
0.36363634  0.36363634  0.36363634   0.00
0.37500000  0.37500000  0.37500000   0.00
0.38636363  0.38636363  0.38636363   0.00
0.39772725  0.39772725  0.39772725   0.00
0.40909088  0.40909088  0.40909088   0.00
0.42045453  0.42045453  0.42045453   0.00
0.43181819  0.43181819  0.43181819   0.00
0.44318178  0.44318178  0.44318178   0.00
0.45454544  0.45454544  0.45454544   0.00
0.46590906  0.46590906  0.46590906   0.00
0.47727272  0.47727272  0.47727272   0.00
0.48863634  0.48863634  0.48863634   0.00
0.49999997  0.49999997  0.49999997   0.00
