C N H Pb I                              
   1.00000000000000     
    12.5768374277686394    0.0019159116494978    0.1381987933539664
     0.0011956322447466   12.4575380825249127   -0.0007464134870236
     0.1394107043392118    0.0000890449825412   12.7474206252920563
   C    N    H    Pb   I 
     8     8    48     8    24
Direct
  0.1751575600214110  0.2498172203122593  0.2629252898515801
  0.7188307048038851  0.2499993299163492  0.1949054188295136
  0.2188307048038851  0.7499993299163492  0.1949054188295136
  0.6751575600214110  0.7498172203122593  0.2629252898515801
  0.1751575600214110  0.2498172203122593  0.7629252898515801
  0.7188307048038851  0.2499993299163492  0.6949054188295136
  0.2188307048038851  0.7499993299163492  0.6949054188295136
  0.6751575600214110  0.7498172203122593  0.7629252898515801
  0.2985279959477509  0.2499345600228011  0.2719605813808954
  0.8105464418856840  0.2500727212103655  0.2758080115677117
  0.3105464418856840  0.7500727212103655  0.2758080115677117
  0.7985279959477509  0.7499345600228011  0.2719605813808954
  0.2985279959477509  0.2499345600228011  0.7719605813808954
  0.8105464418856840  0.2500727212103655  0.7758080115677117
  0.3105464418856840  0.7500727212103655  0.7758080115677117
  0.7985279959477509  0.7499345600228011  0.7719605813808954
  0.1536937713201425  0.2498239911069007  0.1748323598087538
  0.7564565631533640  0.2498182015411601  0.1109448920846745
  0.2564565631533640  0.7498182015411601  0.1109448920846745
  0.6536937713201425  0.7498239911069007  0.1748323598087538
  0.1536937713201425  0.2498239911069007  0.6748323598087538
  0.7564565631533640  0.2498182015411601  0.6109448920846745
  0.2564565631533640  0.7498182015411601  0.6109448920846745
  0.6536937713201425  0.7498239911069007  0.6748323598087538
  0.1406892044608767  0.3220124852181030  0.3031669818697509
  0.6679864088959704  0.3226918881626517  0.2078636566228838
  0.1679864088959704  0.8226918881626517  0.2078636566228838
  0.6406892044608767  0.8220124852181030  0.3031669818697509
  0.1406892044608767  0.3220124852181030  0.8031669818697509
  0.6679864088959704  0.3226918881626517  0.7078636566228838
  0.1679864088959704  0.8226918881626517  0.7078636566228838
  0.6406892044608767  0.8220124852181030  0.8031669818697509
  0.1409328585974094  0.1775282279144719  0.3031413627735660
  0.6679528086810578  0.1774239190358529  0.2081600506470593
  0.1679528086810578  0.6774239190358529  0.2081600506470593
  0.6409328585974023  0.6775282279144719  0.3031413627735660
  0.1409328585974094  0.1775282279144719  0.8031413627735660
  0.6679528086810578  0.1774239190358529  0.7081600506470593
  0.1679528086810578  0.6774239190358529  0.7081600506470593
  0.6409328585974094  0.6775282279144719  0.8031413627735660
  0.3352111635333443  0.3171460223127767  0.2345204075353990
  0.8610579912200649  0.3186025435016688  0.2669925744310788
  0.3610579912200649  0.8186025435016688  0.2669925744310788
  0.8352111635333443  0.8171460223127767  0.2345204075353990
  0.3352111635333443  0.3171460223127767  0.7345204075353990
  0.8610579912200649  0.3186025435016688  0.7669925744310788
  0.3610579912200649  0.8186025435016688  0.7669925744310788
  0.8352111635333443  0.8171460223127767  0.7345204075353990
  0.3354165231710340  0.1828018360459822  0.2344868862382228
  0.8609940773360449  0.1814079388966832  0.2672949134169045
  0.3609940773360449  0.6814079388966832  0.2672949134169045
  0.8354165231710340  0.6828018360459822  0.2344868862382228
  0.3354165231710340  0.1828018360459822  0.7344868862382228
  0.8609940773360449  0.1814079388966832  0.7672949134169045
  0.3609940773360449  0.6814079388966832  0.7672949134169045
  0.8354165231710340  0.6828018360459822  0.7344868862382228
  0.3276923766212931  0.2499047544567858  0.3546363697056805
  0.7786477693247349  0.2502822889821559  0.3565821196339840
  0.2786477693247349  0.7502822889821559  0.3565821196339840
  0.8276923766212931  0.7499047544567858  0.3546363697056805
  0.3276923766212931  0.2499047544567858  0.8546363697056805
  0.7786477693247349  0.2502822889821559  0.8565821196339840
  0.2786477693247349  0.7502822889821559  0.8565821196339840
  0.8276923766212931  0.7499047544567858  0.8546363697056805
  0.4724226330841645  0.4964289754525950  0.4888161935083488
  0.9724609188735585  0.5035506142772732  0.4888067005212591
  0.4724609188735585  0.0035506142772732  0.4888067005212591
  0.9724226330841645  0.9964289754525950  0.4888161935083488
  0.4724226330841645  0.4964289754525950  0.9888161935083488
  0.9724609188735585  0.5035506142772732  0.9888067005212591
  0.4724609188735585  0.0035506142772732  0.9888067005212591
  0.9724226330841645  0.9964289754525950  0.9888161935083488
  0.4546906127208175  0.4980950417795924  0.2375840264794817
  0.9547967359389844  0.5018870572450354  0.2375614574375078
  0.4547967359389844  0.0018870572450354  0.2375614574375078
  0.9546906127208175  0.9980950417795924  0.2375840264794817
  0.4546906127208175  0.4980950417795924  0.7375840264794817
  0.9547967359389844  0.5018870572450354  0.7375614574375078
  0.4547967359389844  0.0018870572450354  0.7375614574375078
  0.9546906127208175  0.9980950417795924  0.7375840264794817
  0.3810426655316945  0.2499925602687227  0.0247223881971479
  0.0182282135960961  0.2499654608223594  0.9989420472712709
  0.5182282135960961  0.7499654608223594  0.9989420472712709
  0.8810426655316945  0.7499925602687227  0.0247223881971479
  0.3810426655316945  0.2499925602687227  0.5247223881971479
  0.0182282135960961  0.2499654608223594  0.4989420472712709
  0.5182282135960961  0.7499654608223594  0.4989420472712709
  0.8810426655316945  0.7499925602687227  0.5247223881971479
  0.2161548808763101  0.5818674938950394  0.4612397140684976
  0.7161879960042654  0.4181273788225042  0.4612396896187150
  0.2161879960042654  0.9181273788225042  0.4612396896187150
  0.7161548808763101  0.0818674938950394  0.4612397140684976
  0.2161548808763101  0.5818674938950394  0.9612397140684976
  0.7161879960042654  0.4181273788225042  0.9612396896187150
  0.2161879960042654  0.9181273788225042  0.9612396896187150
  0.7161548808763101  0.0818674938950394  0.9612397140684976
 
  0.00000000E+00  0.00000000E+00  0.00000000E+00
  0.00000000E+00  0.00000000E+00  0.00000000E+00
  0.00000000E+00  0.00000000E+00  0.00000000E+00
  0.00000000E+00  0.00000000E+00  0.00000000E+00
  0.00000000E+00  0.00000000E+00  0.00000000E+00
  0.00000000E+00  0.00000000E+00  0.00000000E+00
  0.00000000E+00  0.00000000E+00  0.00000000E+00
  0.00000000E+00  0.00000000E+00  0.00000000E+00
  0.00000000E+00  0.00000000E+00  0.00000000E+00
  0.00000000E+00  0.00000000E+00  0.00000000E+00
  0.00000000E+00  0.00000000E+00  0.00000000E+00
  0.00000000E+00  0.00000000E+00  0.00000000E+00
  0.00000000E+00  0.00000000E+00  0.00000000E+00
  0.00000000E+00  0.00000000E+00  0.00000000E+00
  0.00000000E+00  0.00000000E+00  0.00000000E+00
  0.00000000E+00  0.00000000E+00  0.00000000E+00
  0.00000000E+00  0.00000000E+00  0.00000000E+00
  0.00000000E+00  0.00000000E+00  0.00000000E+00
  0.00000000E+00  0.00000000E+00  0.00000000E+00
  0.00000000E+00  0.00000000E+00  0.00000000E+00
  0.00000000E+00  0.00000000E+00  0.00000000E+00
  0.00000000E+00  0.00000000E+00  0.00000000E+00
  0.00000000E+00  0.00000000E+00  0.00000000E+00
  0.00000000E+00  0.00000000E+00  0.00000000E+00
  0.00000000E+00  0.00000000E+00  0.00000000E+00
  0.00000000E+00  0.00000000E+00  0.00000000E+00
  0.00000000E+00  0.00000000E+00  0.00000000E+00
  0.00000000E+00  0.00000000E+00  0.00000000E+00
  0.00000000E+00  0.00000000E+00  0.00000000E+00
  0.00000000E+00  0.00000000E+00  0.00000000E+00
  0.00000000E+00  0.00000000E+00  0.00000000E+00
  0.00000000E+00  0.00000000E+00  0.00000000E+00
  0.00000000E+00  0.00000000E+00  0.00000000E+00
  0.00000000E+00  0.00000000E+00  0.00000000E+00
  0.00000000E+00  0.00000000E+00  0.00000000E+00
  0.00000000E+00  0.00000000E+00  0.00000000E+00
  0.00000000E+00  0.00000000E+00  0.00000000E+00
  0.00000000E+00  0.00000000E+00  0.00000000E+00
  0.00000000E+00  0.00000000E+00  0.00000000E+00
  0.00000000E+00  0.00000000E+00  0.00000000E+00
  0.00000000E+00  0.00000000E+00  0.00000000E+00
  0.00000000E+00  0.00000000E+00  0.00000000E+00
  0.00000000E+00  0.00000000E+00  0.00000000E+00
  0.00000000E+00  0.00000000E+00  0.00000000E+00
  0.00000000E+00  0.00000000E+00  0.00000000E+00
  0.00000000E+00  0.00000000E+00  0.00000000E+00
  0.00000000E+00  0.00000000E+00  0.00000000E+00
  0.00000000E+00  0.00000000E+00  0.00000000E+00
  0.00000000E+00  0.00000000E+00  0.00000000E+00
  0.00000000E+00  0.00000000E+00  0.00000000E+00
  0.00000000E+00  0.00000000E+00  0.00000000E+00
  0.00000000E+00  0.00000000E+00  0.00000000E+00
  0.00000000E+00  0.00000000E+00  0.00000000E+00
  0.00000000E+00  0.00000000E+00  0.00000000E+00
  0.00000000E+00  0.00000000E+00  0.00000000E+00
  0.00000000E+00  0.00000000E+00  0.00000000E+00
  0.00000000E+00  0.00000000E+00  0.00000000E+00
  0.00000000E+00  0.00000000E+00  0.00000000E+00
  0.00000000E+00  0.00000000E+00  0.00000000E+00
  0.00000000E+00  0.00000000E+00  0.00000000E+00
  0.00000000E+00  0.00000000E+00  0.00000000E+00
  0.00000000E+00  0.00000000E+00  0.00000000E+00
  0.00000000E+00  0.00000000E+00  0.00000000E+00
  0.00000000E+00  0.00000000E+00  0.00000000E+00
  0.00000000E+00  0.00000000E+00  0.00000000E+00
  0.00000000E+00  0.00000000E+00  0.00000000E+00
  0.00000000E+00  0.00000000E+00  0.00000000E+00
  0.00000000E+00  0.00000000E+00  0.00000000E+00
  0.00000000E+00  0.00000000E+00  0.00000000E+00
  0.00000000E+00  0.00000000E+00  0.00000000E+00
  0.00000000E+00  0.00000000E+00  0.00000000E+00
  0.00000000E+00  0.00000000E+00  0.00000000E+00
  0.00000000E+00  0.00000000E+00  0.00000000E+00
  0.00000000E+00  0.00000000E+00  0.00000000E+00
  0.00000000E+00  0.00000000E+00  0.00000000E+00
  0.00000000E+00  0.00000000E+00  0.00000000E+00
  0.00000000E+00  0.00000000E+00  0.00000000E+00
  0.00000000E+00  0.00000000E+00  0.00000000E+00
  0.00000000E+00  0.00000000E+00  0.00000000E+00
  0.00000000E+00  0.00000000E+00  0.00000000E+00
  0.00000000E+00  0.00000000E+00  0.00000000E+00
  0.00000000E+00  0.00000000E+00  0.00000000E+00
  0.00000000E+00  0.00000000E+00  0.00000000E+00
  0.00000000E+00  0.00000000E+00  0.00000000E+00
  0.00000000E+00  0.00000000E+00  0.00000000E+00
  0.00000000E+00  0.00000000E+00  0.00000000E+00
  0.00000000E+00  0.00000000E+00  0.00000000E+00
  0.00000000E+00  0.00000000E+00  0.00000000E+00
  0.00000000E+00  0.00000000E+00  0.00000000E+00
  0.00000000E+00  0.00000000E+00  0.00000000E+00
  0.00000000E+00  0.00000000E+00  0.00000000E+00
  0.00000000E+00  0.00000000E+00  0.00000000E+00
  0.00000000E+00  0.00000000E+00  0.00000000E+00
  0.00000000E+00  0.00000000E+00  0.00000000E+00
  0.00000000E+00  0.00000000E+00  0.00000000E+00
  0.00000000E+00  0.00000000E+00  0.00000000E+00
