C N H Pb I
   1.0
    12.5768374277686394    0.0019159116494978    0.1381987933539664
     0.0011956322447466   12.4575380825249127   -0.0007464134870236
     0.1394107043392118    0.0000890449825412   12.7474206252920563
   8    8   48    8   24
Direct
  0.1751575600214135  0.2498172203122593  0.2629252898515777
  0.7188307048038824  0.2499993299163492  0.1949054188295162
  0.2188307048038825  0.7499993299163492  0.1949054188295162
  0.6751575600214134  0.7498172203122592  0.2629252898515777
  0.1751575600214135  0.2498172203122593  0.7629252898515777
  0.7188307048038826  0.2499993299163492  0.6949054188295161
  0.2188307048038824  0.7499993299163492  0.6949054188295161
  0.6751575600214134  0.7498172203122593  0.7629252898515777
  0.2985279959477529  0.2499345600228031  0.2719605813808945
  0.8105464418856820  0.2500727212103636  0.2758080115677127
  0.3105464418856820  0.7500727212103634  0.2758080115677127
  0.7985279959477528  0.7499345600228030  0.2719605813808945
  0.2985279959477529  0.2499345600228031  0.7719605813808944
  0.8105464418856819  0.2500727212103636  0.7758080115677127
  0.3105464418856820  0.7500727212103635  0.7758080115677127
  0.7985279959477527  0.7499345600228031  0.7719605813808944
  0.1536937713201448  0.2498239911069041  0.1748323598087558
  0.7564565631533615  0.2498182015411566  0.1109448920846725
  0.2564565631533616  0.7498182015411566  0.1109448920846725
  0.6536937713201446  0.7498239911069040  0.1748323598087558
  0.1536937713201447  0.2498239911069041  0.6748323598087557
  0.7564565631533614  0.2498182015411567  0.6109448920846726
  0.2564565631533616  0.7498182015411565  0.6109448920846726
  0.6536937713201447  0.7498239911069041  0.6748323598087558
  0.1406892044608767  0.3220124852180997  0.3031669818697485
  0.6679864088959703  0.3226918881626549  0.2078636566228862
  0.1679864088959704  0.8226918881626550  0.2078636566228862
  0.6406892044608768  0.8220124852180997  0.3031669818697485
  0.1406892044608767  0.3220124852180997  0.8031669818697484
  0.6679864088959702  0.3226918881626549  0.7078636566228861
  0.1679864088959704  0.8226918881626550  0.7078636566228861
  0.6406892044608766  0.8220124852180997  0.8031669818697486
  0.1409328585974060  0.1775282279144708  0.3031413627735660
  0.6679528086810610  0.1774239190358539  0.2081600506470593
  0.1679528086810612  0.6774239190358540  0.2081600506470593
  0.6409328585974058  0.6775282279144705  0.3031413627735661
  0.1409328585974060  0.1775282279144708  0.8031413627735661
  0.6679528086810611  0.1774239190358539  0.7081600506470592
  0.1679528086810612  0.6774239190358539  0.7081600506470592
  0.6409328585974059  0.6775282279144706  0.8031413627735661
  0.3352111635333447  0.3171460223127800  0.2345204075353980
  0.8610579912200643  0.3186025435016654  0.2669925744310799
  0.3610579912200645  0.8186025435016653  0.2669925744310799
  0.8352111635333446  0.8171460223127801  0.2345204075353980
  0.3352111635333446  0.3171460223127800  0.7345204075353978
  0.8610579912200642  0.3186025435016654  0.7669925744310799
  0.3610579912200645  0.8186025435016653  0.7669925744310799
  0.8352111635333443  0.8171460223127800  0.7345204075353979
  0.3354165231710306  0.1828018360459791  0.2344868862382230
  0.8609940773360479  0.1814079388966862  0.2672949134169042
  0.3609940773360482  0.6814079388966860  0.2672949134169042
  0.8354165231710304  0.6828018360459791  0.2344868862382230
  0.3354165231710307  0.1828018360459791  0.7344868862382230
  0.8609940773360480  0.1814079388966862  0.7672949134169041
  0.3609940773360482  0.6814079388966862  0.7672949134169041
  0.8354165231710304  0.6828018360459792  0.7344868862382230
  0.3276923766212931  0.2499047544567842  0.3546363697056780
  0.7786477693247348  0.2502822889821575  0.3565821196339864
  0.2786477693247349  0.7502822889821577  0.3565821196339864
  0.8276923766212931  0.7499047544567842  0.3546363697056779
  0.3276923766212931  0.2499047544567842  0.8546363697056780
  0.7786477693247348  0.2502822889821575  0.8565821196339866
  0.2786477693247348  0.7502822889821575  0.8565821196339866
  0.8276923766212929  0.7499047544567842  0.8546363697056779
  0.4724226330841619  0.4964289754525975  0.4888161935083493
  0.9724609188735608  0.5035506142772707  0.4888067005212586
  0.4724609188735611  0.0035506142772705  0.4888067005212586
  0.9724226330841617  0.9964289754525975  0.4888161935083493
  0.4724226330841618  0.4964289754525975  0.9888161935083494
  0.9724609188735609  0.5035506142772707  0.9888067005212589
  0.4724609188735610  0.0035506142772708  0.9888067005212589
  0.9724226330841617  0.9964289754525976  0.9888161935083493
  0.4546906127208195  0.4980950417795912  0.2375840264794813
  0.9547967359389821  0.5018870572450365  0.2375614574375082
  0.4547967359389824  0.0018870572450365  0.2375614574375082
  0.9546906127208193  0.9980950417795912  0.2375840264794813
  0.4546906127208194  0.4980950417795912  0.7375840264794812
  0.9547967359389821  0.5018870572450365  0.7375614574375082
  0.4547967359389823  0.0018870572450362  0.7375614574375082
  0.9546906127208192  0.9980950417795912  0.7375840264794813
  0.3810426655316924  0.2499925602687224  0.0247223881971463
  0.0182282135960981  0.2499654608223597  0.9989420472712726
  0.5182282135960979  0.7499654608223595  0.9989420472712726
  0.8810426655316923  0.7499925602687224  0.0247223881971463
  0.3810426655316924  0.2499925602687224  0.5247223881971462
  0.0182282135960981  0.2499654608223597  0.4989420472712726
  0.5182282135960979  0.7499654608223596  0.4989420472712726
  0.8810426655316923  0.7499925602687224  0.5247223881971462
  0.2161548808763102  0.5818674938950392  0.4612397140684942
  0.7161879960042650  0.4181273788225044  0.4612396896187184
  0.2161879960042652  0.9181273788225042  0.4612396896187184
  0.7161548808763102  0.0818674938950390  0.4612397140684942
  0.2161548808763102  0.5818674938950392  0.9612397140684943
  0.7161879960042651  0.4181273788225044  0.9612396896187184
  0.2161879960042652  0.9181273788225043  0.9612396896187184
  0.7161548808763102  0.0818674938950390  0.9612397140684943
