GaAs                                    
   5.65000000000000     
     0.5098755662915850    0.5098755662915850    0.0000000000000000
     0.5098755662915850    0.0000000000000000   -0.5098755662915850
    -0.0000000000000000    0.5098755662915850   -0.5098755662915850
   Ga   As
     1     1
Direct
  0.0000000000000000 -0.0000000000000000  0.0000000000000000
  0.2500000000000000  0.2500000000000000  0.2500000000000000
 
  0.00000000E+00  0.00000000E+00  0.00000000E+00
  0.00000000E+00  0.00000000E+00  0.00000000E+00
