Automatically generated mesh SCF: 16 steps, Kroute: 30, 4.584*3, GXKGL
      145
Reciprocal lattice
    0.00000000000000    0.00000000000000    0.00000000000000             1
    0.16666666666667    0.00000000000000    0.00000000000000             8
    0.33333333333333    0.00000000000000    0.00000000000000             8
    0.50000000000000    0.00000000000000    0.00000000000000             4
    0.16666666666667    0.16666666666667    0.00000000000000             6
    0.33333333333333    0.16666666666667    0.00000000000000            24
    0.50000000000000    0.16666666666667    0.00000000000000            24
   -0.33333333333333    0.16666666666667    0.00000000000000            24
   -0.16666666666667    0.16666666666667    0.00000000000000            12
    0.33333333333333    0.33333333333333    0.00000000000000             6
    0.50000000000000    0.33333333333333    0.00000000000000            24
   -0.33333333333333    0.33333333333333    0.00000000000000            12
    0.50000000000000    0.50000000000000    0.00000000000000             3
    0.50000000000000    0.33333333333333    0.16666666666667            24
   -0.33333333333333    0.33333333333333    0.16666666666667            24
   -0.33333333333333    0.50000000000000    0.16666666666667            12
0.00000000  0.00000000  0.00000000   0.00
0.01612903  0.00000000  0.01612903   0.00
0.03225807  0.00000000  0.03225807   0.00
0.04838710  0.00000000  0.04838710   0.00
0.06451613  0.00000000  0.06451613   0.00
0.08064516  0.00000000  0.08064516   0.00
0.09677421  0.00000000  0.09677421   0.00
0.11290323  0.00000000  0.11290323   0.00
0.12903227  0.00000000  0.12903227   0.00
0.14516129  0.00000000  0.14516129   0.00
0.16129032  0.00000000  0.16129032   0.00
0.17741935  0.00000000  0.17741935   0.00
0.19354841  0.00000000  0.19354841   0.00
0.20967743  0.00000000  0.20967743   0.00
0.22580646  0.00000000  0.22580646   0.00
0.24193549  0.00000000  0.24193549   0.00
0.25806454  0.00000000  0.25806454   0.00
0.27419356  0.00000000  0.27419356   0.00
0.29032257  0.00000000  0.29032257   0.00
0.30645162  0.00000000  0.30645162   0.00
0.32258064  0.00000000  0.32258064   0.00
0.33870971  0.00000000  0.33870971   0.00
0.35483870  0.00000000  0.35483870   0.00
0.37096775  0.00000000  0.37096775   0.00
0.38709682  0.00000000  0.38709682   0.00
0.40322581  0.00000000  0.40322581   0.00
0.41935486  0.00000000  0.41935486   0.00
0.43548387  0.00000000  0.43548387   0.00
0.45161292  0.00000000  0.45161292   0.00
0.46774194  0.00000000  0.46774194   0.00
0.48387098  0.00000000  0.48387098   0.00
0.50000000  0.00000000  0.50000000   0.00
0.49375001  0.01875000  0.51249999   0.00
0.48750001  0.03750000  0.52499998   0.00
0.48124999  0.05625000  0.53750002   0.00
0.47499999  0.07500000  0.55000001   0.00
0.46875000  0.09374999  0.56250000   0.00
0.46250001  0.11250000  0.57499999   0.00
0.45625001  0.13124999  0.58749998   0.00
0.44999999  0.14999999  0.60000002   0.00
0.44374999  0.16875000  0.61250001   0.00
0.43750000  0.18749999  0.62500000   0.00
0.43125001  0.20625000  0.63749999   0.00
0.42500001  0.22499999  0.64999998   0.00
0.41874999  0.24374999  0.66250002   0.00
0.41249999  0.26249999  0.67500001   0.00
0.40625000  0.28124997  0.68750000   0.00
0.40000001  0.29999998  0.69999999   0.00
0.39375001  0.31874999  0.71249998   0.00
0.38749999  0.33750001  0.72500002   0.00
0.38124999  0.35624996  0.73750001   0.00
0.37500000  0.37499997  0.75000000   0.00
0.36562499  0.36562499  0.73124999   0.00
0.35624999  0.35624999  0.71249998   0.00
0.34687501  0.34687501  0.69375002   0.00
0.33750001  0.33750001  0.67500001   0.00
0.32812500  0.32812500  0.65625000   0.00
0.31874999  0.31874999  0.63749999   0.00
0.30937499  0.30937499  0.61874998   0.00
0.30000001  0.30000001  0.60000002   0.00
0.29062501  0.29062501  0.58125001   0.00
0.28125000  0.28125000  0.56250000   0.00
0.27187499  0.27187499  0.54374999   0.00
0.26249999  0.26249999  0.52499998   0.00
0.25312501  0.25312501  0.50625002   0.00
0.24375001  0.24375001  0.48750001   0.00
0.23437500  0.23437500  0.46875000   0.00
0.22500001  0.22500001  0.45000002   0.00
0.21562500  0.21562500  0.43125001   0.00
0.20625001  0.20625001  0.41250002   0.00
0.19687501  0.19687501  0.39375001   0.00
0.18750001  0.18750001  0.37500003   0.00
0.17812499  0.17812499  0.35624999   0.00
0.16875000  0.16875000  0.33750001   0.00
0.15937500  0.15937500  0.31874999   0.00
0.15000001  0.15000001  0.30000001   0.00
0.14062500  0.14062500  0.28125000   0.00
0.13125001  0.13125001  0.26250002   0.00
0.12187502  0.12187502  0.24375004   0.00
0.11250001  0.11250001  0.22500002   0.00
0.10312501  0.10312501  0.20625001   0.00
0.09375000  0.09375000  0.18750000   0.00
0.08437502  0.08437502  0.16875005   0.00
0.07500002  0.07500002  0.15000004   0.00
0.06562498  0.06562498  0.13124996   0.00
0.05625001  0.05625001  0.11250001   0.00
0.04687500  0.04687500  0.09375000   0.00
0.03750002  0.03750002  0.07500005   0.00
0.02812499  0.02812499  0.05624998   0.00
0.01875001  0.01875001  0.03750002   0.00
0.00937501  0.00937501  0.01875001   0.00
0.00000003  0.00000003  0.00000006   0.00
0.01351351  0.01351351  0.01351351   0.00
0.02702703  0.02702703  0.02702703   0.00
0.04054054  0.04054054  0.04054054   0.00
0.05405406  0.05405406  0.05405406   0.00
0.06756756  0.06756756  0.06756756   0.00
0.08108108  0.08108108  0.08108108   0.00
0.09459460  0.09459460  0.09459460   0.00
0.10810811  0.10810811  0.10810811   0.00
0.12162162  0.12162162  0.12162162   0.00
0.13513513  0.13513513  0.13513513   0.00
0.14864865  0.14864865  0.14864865   0.00
0.16216217  0.16216217  0.16216217   0.00
0.17567569  0.17567569  0.17567569   0.00
0.18918920  0.18918920  0.18918920   0.00
0.20270272  0.20270272  0.20270272   0.00
0.21621622  0.21621622  0.21621622   0.00
0.22972973  0.22972973  0.22972973   0.00
0.24324325  0.24324325  0.24324325   0.00
0.25675675  0.25675675  0.25675675   0.00
0.27027026  0.27027026  0.27027026   0.00
0.28378379  0.28378379  0.28378379   0.00
0.29729730  0.29729730  0.29729730   0.00
0.31081080  0.31081080  0.31081080   0.00
0.32432434  0.32432434  0.32432434   0.00
0.33783787  0.33783787  0.33783787   0.00
0.35135138  0.35135138  0.35135138   0.00
0.36486489  0.36486489  0.36486489   0.00
0.37837839  0.37837839  0.37837839   0.00
0.39189190  0.39189190  0.39189190   0.00
0.40540543  0.40540543  0.40540543   0.00
0.41891894  0.41891894  0.41891894   0.00
0.43243244  0.43243244  0.43243244   0.00
0.44594595  0.44594595  0.44594595   0.00
0.45945945  0.45945945  0.45945945   0.00
0.47297299  0.47297299  0.47297299   0.00
0.48648649  0.48648649  0.48648649   0.00
0.50000000  0.50000000  0.50000000   0.00
