C N H Pb I                              
   1.00000000000000     
    12.5768374277686394    0.0019159116494978    0.1381987933539664
     0.0011956322447466   12.4575380825249127   -0.0007464134870236
     0.1394107043392118    0.0000890449825412   12.7474206252920563
   C    N    H    Pb   I 
     8     8    48     8    24
Direct
  0.1988466937915447  0.2497623602856720  0.2280780163521214
  0.6951415710337514  0.2500541899429365  0.2297526923289723
  0.1951415710337514  0.7500541899429365  0.2297526923289723
  0.6988466937915447  0.7497623602856720  0.2280780163521214
  0.1951415710337514  0.2500541899429365  0.7297526923289723
  0.6988466937915447  0.2497623602856720  0.7280780163521214
  0.1988466937915447  0.7497623602856720  0.7280780163521214
  0.6951415710337514  0.7500541899429365  0.7297526923289723
  0.3216662860887425  0.2499099063729915  0.2386964314718796
  0.7874081517446925  0.2500973748601751  0.3090721614767276
  0.2874081517446925  0.7500973748601751  0.3090721614767276
  0.8216662860887425  0.7499099063729915  0.2386964314718796
  0.2874081517446925  0.2500973748601751  0.8090721614767276
  0.8216662860887425  0.2499099063729915  0.7386964314718796
  0.3216662860887425  0.7499099063729915  0.7386964314718796
  0.7874081517446925  0.7500973748601751  0.8090721614767276
  0.1785025105295048  0.2496759150205179  0.1400306886336438
  0.7316478239440016  0.2499662776275429  0.1457465632597845
  0.2316478239440016  0.7499662776275429  0.1457465632597845
  0.6785025105295048  0.7496759150205179  0.1400306886336438
  0.2316478239440016  0.2499662776275429  0.6457465632597845
  0.6785025105295048  0.2496759150205179  0.6400306886336438
  0.1785025105295048  0.7496759150205179  0.6400306886336438
  0.7316478239440016  0.7499662776275429  0.6457465632597845
  0.1640290996166840  0.3219963240183361  0.2676047554280885
  0.6446465137401631  0.3227080493624186  0.2434258830645462
  0.1446465137401631  0.8227080493624186  0.2434258830645462
  0.6640290996166840  0.8219963240183361  0.2676047554280885
  0.1446465137401631  0.3227080493624186  0.7434258830645462
  0.6640290996166840  0.3219963240183361  0.7676047554280885
  0.1640290996166840  0.8219963240183361  0.7676047554280885
  0.6446465137401631  0.8227080493624186  0.7434258830645462
  0.1642571303317553  0.1774908925076915  0.2677108783780966
  0.6446285369467120  0.1774612544426333  0.2435905350425287
  0.1446285369467120  0.6774612544426333  0.2435905350425287
  0.6642571303317553  0.6774908925076915  0.2677108783780966
  0.1446285369467120  0.1774612544426333  0.7435905350425287
  0.6642571303317553  0.1774908925076915  0.7677108783780966
  0.1642571303317553  0.6774908925076915  0.7677108783780966
  0.6446285369467120  0.6774612544426333  0.7435905350425287
  0.3584829987682951  0.3175978407185625  0.2027206289665173
  0.8377861559851141  0.3181507250958830  0.2987923529999605
  0.3377861559851141  0.8181507250958830  0.2987923529999605
  0.8584829987682951  0.8175978407185625  0.2027206289665173
  0.3377861559851141  0.3181507250958830  0.7987923529999605
  0.8584829987682951  0.3175978407185625  0.7027206289665173
  0.3584829987682951  0.8175978407185625  0.7027206289665173
  0.8377861559851141  0.8181507250958830  0.7987923529999605
  0.3587002797234575  0.1822966312133119  0.2027263942266018
  0.8377103207836214  0.1819131437293535  0.2990554054285255
  0.3377103207836214  0.6819131437293535  0.2990554054285255
  0.8587002797234575  0.6822966312133119  0.2027263942266018
  0.3377103207836214  0.1819131437293535  0.7990554054285255
  0.8587002797234575  0.1822966312133119  0.7027263942266018
  0.3587002797234575  0.6822966312133119  0.7027263942266018
  0.8377103207836214  0.6819131437293535  0.7990554054285255
  0.3495208892844275  0.2499005490030370  0.3214919914134100
  0.7568192566616005  0.2502864944359047  0.3897264979262545
  0.2568192566616005  0.7502864944359047  0.3897264979262545
  0.8495208892844275  0.7499005490030370  0.3214919914134100
  0.2568192566616005  0.2502864944359047  0.8897264979262545
  0.8495208892844275  0.2499005490030370  0.8214919914134100
  0.3495208892844275  0.7499005490030370  0.8214919914134100
  0.7568192566616005  0.7502864944359047  0.8897264979262545
  0.4724328870622330  0.4954124143621854  0.4887992726008576
  0.9724506648954900  0.5045671753676828  0.4888236214287502
  0.4724506648954900  0.0045671753676828  0.4888236214287502
  0.9724328870622330  0.9954124143621854  0.4887992726008576
  0.4724506648954900  0.5045671753676828  0.9888236214287502
  0.9724328870622330  0.4954124143621854  0.9887992726008576
  0.4724328870622330  0.9954124143621854  0.9887992726008576
  0.9724506648954900  0.0045671753676828  0.9888236214287502
  0.4546368035642558  0.5094664856014504  0.2375781570836253
  0.9548505450955460  0.4905156134231774  0.2375673268333642
  0.4548505450955460  0.9905156134231774  0.2375673268333642
  0.9546368035642558  0.0094664856014504  0.2375781570836253
  0.4548505450955460  0.4905156134231774  0.7375673268333642
  0.9546368035642558  0.5094664856014504  0.7375781570836253
  0.4546368035642558  0.0094664856014504  0.7375781570836253
  0.9548505450955460  0.9905156134231774  0.7375673268333642
  0.5198917514141570  0.2499621343158935  0.0086934504541887
  0.8793791277136336  0.2499958867751886  0.0149709850142301
  0.3793791277136336  0.7499958867751886  0.0149709850142301
  0.0198917514141570  0.7499621343158935  0.0086934504541887
  0.3793791277136336  0.2499958867751886  0.5149709850142301
  0.0198917514141570  0.2499621343158935  0.5086934504541887
  0.5198917514141570  0.7499621343158935  0.5086934504541887
  0.8793791277136336  0.7499958867751886  0.5149709850142301
  0.2161540273974296  0.5805888751450112  0.4613238421866299
  0.7161888494831459  0.4194059975725324  0.4611555615005827
  0.2161888494831459  0.9194059975725324  0.4611555615005827
  0.7161540273974296  0.0805888751450112  0.4613238421866299
  0.2161888494831459  0.4194059975725324  0.9611555615005827
  0.7161540273974296  0.5805888751450112  0.9613238421866299
  0.2161540273974296  0.0805888751450112  0.9613238421866299
  0.7161888494831459  0.9194059975725324  0.9611555615005827
 
  0.00000000E+00  0.00000000E+00  0.00000000E+00
  0.00000000E+00  0.00000000E+00  0.00000000E+00
  0.00000000E+00  0.00000000E+00  0.00000000E+00
  0.00000000E+00  0.00000000E+00  0.00000000E+00
  0.00000000E+00  0.00000000E+00  0.00000000E+00
  0.00000000E+00  0.00000000E+00  0.00000000E+00
  0.00000000E+00  0.00000000E+00  0.00000000E+00
  0.00000000E+00  0.00000000E+00  0.00000000E+00
  0.00000000E+00  0.00000000E+00  0.00000000E+00
  0.00000000E+00  0.00000000E+00  0.00000000E+00
  0.00000000E+00  0.00000000E+00  0.00000000E+00
  0.00000000E+00  0.00000000E+00  0.00000000E+00
  0.00000000E+00  0.00000000E+00  0.00000000E+00
  0.00000000E+00  0.00000000E+00  0.00000000E+00
  0.00000000E+00  0.00000000E+00  0.00000000E+00
  0.00000000E+00  0.00000000E+00  0.00000000E+00
  0.00000000E+00  0.00000000E+00  0.00000000E+00
  0.00000000E+00  0.00000000E+00  0.00000000E+00
  0.00000000E+00  0.00000000E+00  0.00000000E+00
  0.00000000E+00  0.00000000E+00  0.00000000E+00
  0.00000000E+00  0.00000000E+00  0.00000000E+00
  0.00000000E+00  0.00000000E+00  0.00000000E+00
  0.00000000E+00  0.00000000E+00  0.00000000E+00
  0.00000000E+00  0.00000000E+00  0.00000000E+00
  0.00000000E+00  0.00000000E+00  0.00000000E+00
  0.00000000E+00  0.00000000E+00  0.00000000E+00
  0.00000000E+00  0.00000000E+00  0.00000000E+00
  0.00000000E+00  0.00000000E+00  0.00000000E+00
  0.00000000E+00  0.00000000E+00  0.00000000E+00
  0.00000000E+00  0.00000000E+00  0.00000000E+00
  0.00000000E+00  0.00000000E+00  0.00000000E+00
  0.00000000E+00  0.00000000E+00  0.00000000E+00
  0.00000000E+00  0.00000000E+00  0.00000000E+00
  0.00000000E+00  0.00000000E+00  0.00000000E+00
  0.00000000E+00  0.00000000E+00  0.00000000E+00
  0.00000000E+00  0.00000000E+00  0.00000000E+00
  0.00000000E+00  0.00000000E+00  0.00000000E+00
  0.00000000E+00  0.00000000E+00  0.00000000E+00
  0.00000000E+00  0.00000000E+00  0.00000000E+00
  0.00000000E+00  0.00000000E+00  0.00000000E+00
  0.00000000E+00  0.00000000E+00  0.00000000E+00
  0.00000000E+00  0.00000000E+00  0.00000000E+00
  0.00000000E+00  0.00000000E+00  0.00000000E+00
  0.00000000E+00  0.00000000E+00  0.00000000E+00
  0.00000000E+00  0.00000000E+00  0.00000000E+00
  0.00000000E+00  0.00000000E+00  0.00000000E+00
  0.00000000E+00  0.00000000E+00  0.00000000E+00
  0.00000000E+00  0.00000000E+00  0.00000000E+00
  0.00000000E+00  0.00000000E+00  0.00000000E+00
  0.00000000E+00  0.00000000E+00  0.00000000E+00
  0.00000000E+00  0.00000000E+00  0.00000000E+00
  0.00000000E+00  0.00000000E+00  0.00000000E+00
  0.00000000E+00  0.00000000E+00  0.00000000E+00
  0.00000000E+00  0.00000000E+00  0.00000000E+00
  0.00000000E+00  0.00000000E+00  0.00000000E+00
  0.00000000E+00  0.00000000E+00  0.00000000E+00
  0.00000000E+00  0.00000000E+00  0.00000000E+00
  0.00000000E+00  0.00000000E+00  0.00000000E+00
  0.00000000E+00  0.00000000E+00  0.00000000E+00
  0.00000000E+00  0.00000000E+00  0.00000000E+00
  0.00000000E+00  0.00000000E+00  0.00000000E+00
  0.00000000E+00  0.00000000E+00  0.00000000E+00
  0.00000000E+00  0.00000000E+00  0.00000000E+00
  0.00000000E+00  0.00000000E+00  0.00000000E+00
  0.00000000E+00  0.00000000E+00  0.00000000E+00
  0.00000000E+00  0.00000000E+00  0.00000000E+00
  0.00000000E+00  0.00000000E+00  0.00000000E+00
  0.00000000E+00  0.00000000E+00  0.00000000E+00
  0.00000000E+00  0.00000000E+00  0.00000000E+00
  0.00000000E+00  0.00000000E+00  0.00000000E+00
  0.00000000E+00  0.00000000E+00  0.00000000E+00
  0.00000000E+00  0.00000000E+00  0.00000000E+00
  0.00000000E+00  0.00000000E+00  0.00000000E+00
  0.00000000E+00  0.00000000E+00  0.00000000E+00
  0.00000000E+00  0.00000000E+00  0.00000000E+00
  0.00000000E+00  0.00000000E+00  0.00000000E+00
  0.00000000E+00  0.00000000E+00  0.00000000E+00
  0.00000000E+00  0.00000000E+00  0.00000000E+00
  0.00000000E+00  0.00000000E+00  0.00000000E+00
  0.00000000E+00  0.00000000E+00  0.00000000E+00
  0.00000000E+00  0.00000000E+00  0.00000000E+00
  0.00000000E+00  0.00000000E+00  0.00000000E+00
  0.00000000E+00  0.00000000E+00  0.00000000E+00
  0.00000000E+00  0.00000000E+00  0.00000000E+00
  0.00000000E+00  0.00000000E+00  0.00000000E+00
  0.00000000E+00  0.00000000E+00  0.00000000E+00
  0.00000000E+00  0.00000000E+00  0.00000000E+00
  0.00000000E+00  0.00000000E+00  0.00000000E+00
  0.00000000E+00  0.00000000E+00  0.00000000E+00
  0.00000000E+00  0.00000000E+00  0.00000000E+00
  0.00000000E+00  0.00000000E+00  0.00000000E+00
  0.00000000E+00  0.00000000E+00  0.00000000E+00
  0.00000000E+00  0.00000000E+00  0.00000000E+00
  0.00000000E+00  0.00000000E+00  0.00000000E+00
  0.00000000E+00  0.00000000E+00  0.00000000E+00
  0.00000000E+00  0.00000000E+00  0.00000000E+00
