C N H Pb I
   1.0
    12.5768374277686394    0.0019159116494978    0.1381987933539664
     0.0011956322447466   12.4575380825249127   -0.0007464134870236
     0.1394107043392118    0.0000890449825412   12.7474206252920563
C   N   H  Pb   I
   8    8   48    8   24
Direct
  0.1981092533760931  0.2499129249795303  0.2271785803004554
  0.6958790114492028  0.2499036252490782  0.2306521283806384
  0.1958790114492029  0.7499036252490783  0.2306521283806384
  0.6981092533760930  0.7499129249795303  0.2271785803004554
  0.1981092533760931  0.2499129249795303  0.7271785803004552
  0.6958790114492029  0.2499036252490781  0.7306521283806385
  0.1958790114492029  0.7499036252490782  0.7306521283806385
  0.6981092533760930  0.7499129249795303  0.7271785803004552
  0.3048440899030005  0.2500071683322392  0.2739825341917411
  0.8042303479304344  0.2500001129009274  0.2737860587568661
  0.3042303479304343  0.7500001129009273  0.2737860587568661
  0.8048440899030004  0.7500071683322392  0.2739825341917411
  0.3048440899030005  0.2500071683322392  0.7739825341917410
  0.8042303479304344  0.2500001129009274  0.7737860587568661
  0.3042303479304344  0.7500001129009274  0.7737860587568661
  0.8048440899030003  0.7500071683322392  0.7739825341917410
  0.2076990438548904  0.2498209484971197  0.1412573659374974
  0.7024512906186158  0.2498212441509411  0.1445198859559309
  0.2024512906186159  0.7498212441509410  0.1445198859559309
  0.7076990438548904  0.7498209484971197  0.1412573659374974
  0.2076990438548904  0.2498209484971197  0.6412573659374975
  0.7024512906186159  0.2498212441509411  0.6445198859559309
  0.2024512906186160  0.7498212441509410  0.6445198859559309
  0.7076990438548902  0.7498209484971197  0.6412573659374975
  0.1550347952983344  0.3223695341122307  0.2530819076750208
  0.6536408180585126  0.3223348392685239  0.2579487308176139
  0.1536408180585126  0.8223348392685240  0.2579487308176139
  0.6550347952983343  0.8223695341122307  0.2530819076750208
  0.1550347952983344  0.3223695341122306  0.7530819076750208
  0.6536408180585126  0.3223348392685239  0.7579487308176139
  0.1536408180585126  0.8223348392685241  0.7579487308176139
  0.6550347952983343  0.8223695341122307  0.7530819076750208
  0.1551327430313690  0.1774734101217974  0.2532255172073562
  0.6537529242470981  0.1774787368285273  0.2580758962132691
  0.1537529242470982  0.6774787368285271  0.2580758962132691
  0.6551327430313688  0.6774734101217973  0.2532255172073562
  0.1551327430313689  0.1774734101217974  0.7532255172073562
  0.6537529242470982  0.1774787368285273  0.7580758962132691
  0.1537529242470982  0.6774787368285272  0.7580758962132691
  0.6551327430313687  0.6774734101217974  0.7532255172073562
  0.3487945330436401  0.3179114727482452  0.2515856136446410
  0.8474746217097689  0.3178370930662003  0.2499273683218368
  0.3474746217097691  0.8178370930662001  0.2499273683218368
  0.8487945330436401  0.8179114727482453  0.2515856136446410
  0.3487945330436401  0.3179114727482452  0.7515856136446409
  0.8474746217097688  0.3178370930662003  0.7499273683218369
  0.3474746217097691  0.8178370930662001  0.7499273683218368
  0.8487945330436398  0.8179114727482452  0.7515856136446409
  0.3488583804698858  0.1820692966307870  0.2517285981215252
  0.8475522200371928  0.1821404783118784  0.2500532015336021
  0.3475522200371930  0.6821404783118784  0.2500532015336021
  0.8488583804698856  0.6820692966307870  0.2517285981215252
  0.3488583804698858  0.1820692966307870  0.7517285981215251
  0.8475522200371929  0.1821404783118784  0.7500532015336020
  0.3475522200371931  0.6821404783118783  0.7500532015336020
  0.8488583804698856  0.6820692966307870  0.7517285981215251
  0.3019178006667133  0.2501031614343524  0.3556589261513359
  0.8044223452793146  0.2500838820045893  0.3555595631883285
  0.3044223452793148  0.7500838820045893  0.3555595631883285
  0.8019178006667131  0.7501031614343524  0.3556589261513359
  0.3019178006667132  0.2501031614343524  0.8556589261513359
  0.8044223452793147  0.2500838820045893  0.8555595631883286
  0.3044223452793147  0.7500838820045893  0.8555595631883286
  0.8019178006667133  0.7501031614343523  0.8556589261513359
  0.4724427535426842  0.5001716340429246  0.4888112046272002
  0.9724407984150385  0.4998079556869434  0.4888116894024076
  0.4724407984150387  0.9998079556869435  0.4888116894024077
  0.9724427535426841  0.0001716340429248  0.4888112046272002
  0.4724427535426842  0.5001716340429246  0.9888112046272004
  0.9724407984150385  0.4998079556869434  0.9888116894024076
  0.4724407984150387  0.9998079556869435  0.9888116894024076
  0.9724427535426842  0.0001716340429245  0.9888112046272005
  0.4547463840094051  0.5000878723071990  0.2375721656956231
  0.9547409646503965  0.4998942267174287  0.2375733182213664
  0.4547409646503966  0.9998942267174286  0.2375733182213664
  0.9547463840094050  0.0000878723071991  0.2375721656956231
  0.4547463840094052  0.5000878723071990  0.7375721656956230
  0.9547409646503964  0.4998942267174287  0.7375733182213665
  0.4547409646503965  0.9998942267174287  0.7375733182213664
  0.9547463840094050  0.0000878723071989  0.7375721656956230
  0.4531382438911404  0.2499783186063439  0.0111739596959012
  0.9461326352366500  0.2499797024847382  0.0124904757725176
  0.4461326352366499  0.7499797024847381  0.0124904757725176
  0.9531382438911402  0.7499783186063439  0.0111739596959012
  0.4531382438911404  0.2499783186063439  0.5111739596959012
  0.9461326352366500  0.2499797024847382  0.5124904757725175
  0.4461326352366500  0.7499797024847381  0.5124904757725175
  0.9531382438911402  0.7499783186063438  0.5111739596959012
  0.2161722839798882  0.4958166054205869  0.4612397012193221
  0.7161705929006870  0.5041782672969567  0.4612397024678906
  0.2161705929006872  0.0041782672969566  0.4612397024678906
  0.7161722839798882  0.9958166054205867  0.4612397012193221
  0.2161722839798882  0.4958166054205869  0.9612397012193221
  0.7161705929006871  0.5041782672969567  0.9612397024678906
  0.2161705929006872  0.0041782672969566  0.9612397024678907
  0.7161722839798882  0.9958166054205867  0.9612397012193220
