Automatically generated mesh: SCF=15,715,  0.005, 0,0,0.423-0.423,0,0.423-0.423,0,0-0.423,0,0.423-0.423,0.5,0.423, 3.84x3
    730
Reciprocal lattice
    0.00000000000000    0.00000000000000    0.00000000000000             1
    0.16666666666667    0.00000000000000    0.00000000000000             8
    0.33333333333333    0.00000000000000    0.00000000000000             8
    0.50000000000000    0.00000000000000    0.00000000000000             4
    0.16666666666667    0.16666666666667    0.00000000000000             6
    0.33333333333333    0.16666666666667    0.00000000000000            24
    0.50000000000000    0.16666666666667    0.00000000000000            24
   -0.33333333333333    0.16666666666667    0.00000000000000            24
   -0.16666666666667    0.16666666666667    0.00000000000000            12
    0.33333333333333    0.33333333333333    0.00000000000000             6
    0.50000000000000    0.33333333333333    0.00000000000000            24
   -0.33333333333333    0.33333333333333    0.00000000000000            12
    0.50000000000000    0.50000000000000    0.00000000000000             3
    0.50000000000000    0.33333333333333    0.16666666666667            24
   -0.33333333333333    0.33333333333333    0.16666666666667            24
0.00000000  0.00000000  0.42300000   0.00
0.00247368  0.00000000  0.42300001   0.00
0.00494737  0.00000000  0.42300001   0.00
0.00742105  0.00000000  0.42300001   0.00
0.00989474  0.00000000  0.42300001   0.00
0.01236842  0.00000000  0.42300001   0.00
0.01484211  0.00000000  0.42300001   0.00
0.01731579  0.00000000  0.42300001   0.00
0.01978947  0.00000000  0.42300001   0.00
0.02226316  0.00000000  0.42300001   0.00
0.02473684  0.00000000  0.42300001   0.00
0.02721053  0.00000000  0.42300001   0.00
0.02968421  0.00000000  0.42300001   0.00
0.03215790  0.00000000  0.42300001   0.00
0.03463158  0.00000000  0.42300001   0.00
0.03710527  0.00000000  0.42300001   0.00
0.03957895  0.00000000  0.42300001   0.00
0.04205263  0.00000000  0.42300001   0.00
0.04452632  0.00000000  0.42300001   0.00
0.04700000  0.00000000  0.42300001   0.00
0.04947368  0.00000000  0.42300001   0.00
0.05194737  0.00000000  0.42300001   0.00
0.05442106  0.00000000  0.42300001   0.00
0.05689474  0.00000000  0.42300001   0.00
0.05936843  0.00000000  0.42300001   0.00
0.06184211  0.00000000  0.42300001   0.00
0.06431580  0.00000000  0.42300001   0.00
0.06678948  0.00000000  0.42300001   0.00
0.06926316  0.00000000  0.42300001   0.00
0.07173685  0.00000000  0.42300001   0.00
0.07421053  0.00000000  0.42300001   0.00
0.07668422  0.00000000  0.42300001   0.00
0.07915790  0.00000000  0.42300001   0.00
0.08163158  0.00000000  0.42300001   0.00
0.08410527  0.00000000  0.42300001   0.00
0.08657895  0.00000000  0.42300001   0.00
0.08905264  0.00000000  0.42300001   0.00
0.09152632  0.00000000  0.42300001   0.00
0.09400000  0.00000000  0.42300001   0.00
0.09647369  0.00000000  0.42300001   0.00
0.09894737  0.00000000  0.42300001   0.00
0.10142106  0.00000000  0.42300001   0.00
0.10389474  0.00000000  0.42300001   0.00
0.10636842  0.00000000  0.42300001   0.00
0.10884211  0.00000000  0.42300001   0.00
0.11131579  0.00000000  0.42300001   0.00
0.11378948  0.00000000  0.42300001   0.00
0.11626317  0.00000000  0.42300001   0.00
0.11873686  0.00000000  0.42300001   0.00
0.12121054  0.00000000  0.42300001   0.00
0.12368421  0.00000000  0.42300001   0.00
0.12615791  0.00000000  0.42300001   0.00
0.12863159  0.00000000  0.42300001   0.00
0.13110527  0.00000000  0.42300001   0.00
0.13357896  0.00000000  0.42300001   0.00
0.13605264  0.00000000  0.42300001   0.00
0.13852632  0.00000000  0.42300001   0.00
0.14100000  0.00000000  0.42300001   0.00
0.14347370  0.00000000  0.42300001   0.00
0.14594738  0.00000000  0.42300001   0.00
0.14842106  0.00000000  0.42300001   0.00
0.15089475  0.00000000  0.42300001   0.00
0.15336844  0.00000000  0.42300001   0.00
0.15584213  0.00000000  0.42300001   0.00
0.15831579  0.00000000  0.42300001   0.00
0.16078947  0.00000000  0.42300001   0.00
0.16326316  0.00000000  0.42300001   0.00
0.16573685  0.00000000  0.42300001   0.00
0.16821054  0.00000000  0.42300001   0.00
0.17068422  0.00000000  0.42300001   0.00
0.17315790  0.00000000  0.42300001   0.00
0.17563158  0.00000000  0.42300001   0.00
0.17810528  0.00000000  0.42300001   0.00
0.18057896  0.00000000  0.42300001   0.00
0.18305264  0.00000000  0.42300001   0.00
0.18552633  0.00000000  0.42300001   0.00
0.18800001  0.00000000  0.42300001   0.00
0.19047371  0.00000000  0.42300001   0.00
0.19294739  0.00000000  0.42300001   0.00
0.19542107  0.00000000  0.42300001   0.00
0.19789474  0.00000000  0.42300001   0.00
0.20036842  0.00000000  0.42300001   0.00
0.20284212  0.00000000  0.42300001   0.00
0.20531580  0.00000000  0.42300001   0.00
0.20778948  0.00000000  0.42300001   0.00
0.21026316  0.00000000  0.42300001   0.00
0.21273685  0.00000000  0.42300001   0.00
0.21521054  0.00000000  0.42300001   0.00
0.21768422  0.00000000  0.42300001   0.00
0.22015791  0.00000000  0.42300001   0.00
0.22263159  0.00000000  0.42300001   0.00
0.22510527  0.00000000  0.42300001   0.00
0.22757897  0.00000000  0.42300001   0.00
0.23005265  0.00000000  0.42300001   0.00
0.23252633  0.00000000  0.42300001   0.00
0.23500001  0.00000000  0.42300001   0.00
0.23747371  0.00000000  0.42300001   0.00
0.23994739  0.00000000  0.42300001   0.00
0.24242108  0.00000000  0.42300001   0.00
0.24489474  0.00000000  0.42300001   0.00
0.24736843  0.00000000  0.42300001   0.00
0.24984212  0.00000000  0.42300001   0.00
0.25231582  0.00000000  0.42300001   0.00
0.25478950  0.00000000  0.42300001   0.00
0.25726318  0.00000000  0.42300001   0.00
0.25973687  0.00000000  0.42300001   0.00
0.26221055  0.00000000  0.42300001   0.00
0.26468423  0.00000000  0.42300001   0.00
0.26715791  0.00000000  0.42300001   0.00
0.26963159  0.00000000  0.42300001   0.00
0.27210528  0.00000000  0.42300001   0.00
0.27457896  0.00000000  0.42300001   0.00
0.27705264  0.00000000  0.42300001   0.00
0.27952632  0.00000000  0.42300001   0.00
0.28200001  0.00000000  0.42300001   0.00
0.28447369  0.00000000  0.42300001   0.00
0.28694740  0.00000000  0.42300001   0.00
0.28942108  0.00000000  0.42300001   0.00
0.29189476  0.00000000  0.42300001   0.00
0.29436845  0.00000000  0.42300001   0.00
0.29684213  0.00000000  0.42300001   0.00
0.29931581  0.00000000  0.42300001   0.00
0.30178949  0.00000000  0.42300001   0.00
0.30426317  0.00000000  0.42300001   0.00
0.30673689  0.00000000  0.42300001   0.00
0.30921054  0.00000000  0.42300001   0.00
0.31168425  0.00000000  0.42300001   0.00
0.31415790  0.00000000  0.42300001   0.00
0.31663159  0.00000000  0.42300001   0.00
0.31910530  0.00000000  0.42300001   0.00
0.32157895  0.00000000  0.42300001   0.00
0.32405266  0.00000000  0.42300001   0.00
0.32652631  0.00000000  0.42300001   0.00
0.32900003  0.00000000  0.42300001   0.00
0.33147371  0.00000000  0.42300001   0.00
0.33394739  0.00000000  0.42300001   0.00
0.33642107  0.00000000  0.42300001   0.00
0.33889475  0.00000000  0.42300001   0.00
0.34136844  0.00000000  0.42300001   0.00
0.34384215  0.00000000  0.42300001   0.00
0.34631580  0.00000000  0.42300001   0.00
0.34878951  0.00000000  0.42300001   0.00
0.35126317  0.00000000  0.42300001   0.00
0.35373685  0.00000000  0.42300001   0.00
0.35621056  0.00000000  0.42300001   0.00
0.35868421  0.00000000  0.42300001   0.00
0.36115792  0.00000000  0.42300001   0.00
0.36363158  0.00000000  0.42300001   0.00
0.36610529  0.00000000  0.42300001   0.00
0.36857897  0.00000000  0.42300001   0.00
0.37105265  0.00000000  0.42300001   0.00
0.37352633  0.00000000  0.42300001   0.00
0.37600002  0.00000000  0.42300001   0.00
0.37847370  0.00000000  0.42300001   0.00
0.38094741  0.00000000  0.42300001   0.00
0.38342106  0.00000000  0.42300001   0.00
0.38589478  0.00000000  0.42300001   0.00
0.38836843  0.00000000  0.42300001   0.00
0.39084214  0.00000000  0.42300001   0.00
0.39331582  0.00000000  0.42300001   0.00
0.39578947  0.00000000  0.42300001   0.00
0.39826319  0.00000000  0.42300001   0.00
0.40073684  0.00000000  0.42300001   0.00
0.40321055  0.00000000  0.42300001   0.00
0.40568423  0.00000000  0.42300001   0.00
0.40815791  0.00000000  0.42300001   0.00
0.41063160  0.00000000  0.42300001   0.00
0.41310528  0.00000000  0.42300001   0.00
0.41557896  0.00000000  0.42300001   0.00
0.41805267  0.00000000  0.42300001   0.00
0.42052633  0.00000000  0.42300001   0.00
0.42300004  0.00000000  0.42300001   0.00
0.42300001  0.00000000  0.42052633   0.00
0.42300001  0.00000000  0.41805264   0.00
0.42300001  0.00000000  0.41557896   0.00
0.42300001  0.00000000  0.41310525   0.00
0.42300001  0.00000000  0.41063157   0.00
0.42300001  0.00000000  0.40815789   0.00
0.42300001  0.00000000  0.40568420   0.00
0.42300001  0.00000000  0.40321052   0.00
0.42300001  0.00000000  0.40073684   0.00
0.42300001  0.00000000  0.39826316   0.00
0.42300001  0.00000000  0.39578947   0.00
0.42300001  0.00000000  0.39331579   0.00
0.42300001  0.00000000  0.39084211   0.00
0.42300001  0.00000000  0.38836843   0.00
0.42300001  0.00000000  0.38589475   0.00
0.42300001  0.00000000  0.38342106   0.00
0.42300001  0.00000000  0.38094735   0.00
0.42300001  0.00000000  0.37847367   0.00
0.42300001  0.00000000  0.37599999   0.00
0.42300001  0.00000000  0.37352630   0.00
0.42300001  0.00000000  0.37105262   0.00
0.42300001  0.00000000  0.36857894   0.00
0.42300001  0.00000000  0.36610526   0.00
0.42300001  0.00000000  0.36363158   0.00
0.42300001  0.00000000  0.36115789   0.00
0.42300001  0.00000000  0.35868421   0.00
0.42300001  0.00000000  0.35621053   0.00
0.42300001  0.00000000  0.35373685   0.00
0.42300001  0.00000000  0.35126314   0.00
0.42300001  0.00000000  0.34878945   0.00
0.42300001  0.00000000  0.34631577   0.00
0.42300001  0.00000000  0.34384209   0.00
0.42300001  0.00000000  0.34136841   0.00
0.42300001  0.00000000  0.33889472   0.00
0.42300001  0.00000000  0.33642104   0.00
0.42300001  0.00000000  0.33394736   0.00
0.42300001  0.00000000  0.33147368   0.00
0.42300001  0.00000000  0.32900000   0.00
0.42300001  0.00000000  0.32652631   0.00
0.42300001  0.00000000  0.32405263   0.00
0.42300001  0.00000000  0.32157895   0.00
0.42300001  0.00000000  0.31910527   0.00
0.42300001  0.00000000  0.31663159   0.00
0.42300001  0.00000000  0.31415787   0.00
0.42300001  0.00000000  0.31168419   0.00
0.42300001  0.00000000  0.30921051   0.00
0.42300001  0.00000000  0.30673683   0.00
0.42300001  0.00000000  0.30426314   0.00
0.42300001  0.00000000  0.30178946   0.00
0.42300001  0.00000000  0.29931578   0.00
0.42300001  0.00000000  0.29684210   0.00
0.42300001  0.00000000  0.29436842   0.00
0.42300001  0.00000000  0.29189473   0.00
0.42300001  0.00000000  0.28942105   0.00
0.42300001  0.00000000  0.28694737   0.00
0.42300001  0.00000000  0.28447369   0.00
0.42300001  0.00000000  0.28200001   0.00
0.42300001  0.00000000  0.27952629   0.00
0.42300001  0.00000000  0.27705261   0.00
0.42300001  0.00000000  0.27457893   0.00
0.42300001  0.00000000  0.27210525   0.00
0.42300001  0.00000000  0.26963156   0.00
0.42300001  0.00000000  0.26715788   0.00
0.42300001  0.00000000  0.26468420   0.00
0.42300001  0.00000000  0.26221052   0.00
0.42300001  0.00000000  0.25973684   0.00
0.42300001  0.00000000  0.25726315   0.00
0.42300001  0.00000000  0.25478947   0.00
0.42300001  0.00000000  0.25231579   0.00
0.42300001  0.00000000  0.24984209   0.00
0.42300001  0.00000000  0.24736841   0.00
0.42300001  0.00000000  0.24489471   0.00
0.42300001  0.00000000  0.24242103   0.00
0.42300001  0.00000000  0.23994735   0.00
0.42300001  0.00000000  0.23747367   0.00
0.42300001  0.00000000  0.23499998   0.00
0.42300001  0.00000000  0.23252629   0.00
0.42300001  0.00000000  0.23005261   0.00
0.42300001  0.00000000  0.22757892   0.00
0.42300001  0.00000000  0.22510526   0.00
0.42300001  0.00000000  0.22263157   0.00
0.42300001  0.00000000  0.22015788   0.00
0.42300001  0.00000000  0.21768419   0.00
0.42300001  0.00000000  0.21521051   0.00
0.42300001  0.00000000  0.21273683   0.00
0.42300001  0.00000000  0.21026315   0.00
0.42300001  0.00000000  0.20778945   0.00
0.42300001  0.00000000  0.20531577   0.00
0.42300001  0.00000000  0.20284209   0.00
0.42300001  0.00000000  0.20036840   0.00
0.42300001  0.00000000  0.19789472   0.00
0.42300001  0.00000000  0.19542103   0.00
0.42300001  0.00000000  0.19294734   0.00
0.42300001  0.00000000  0.19047366   0.00
0.42300001  0.00000000  0.18799998   0.00
0.42300001  0.00000000  0.18552628   0.00
0.42300001  0.00000000  0.18305260   0.00
0.42300001  0.00000000  0.18057892   0.00
0.42300001  0.00000000  0.17810525   0.00
0.42300001  0.00000000  0.17563157   0.00
0.42300001  0.00000000  0.17315787   0.00
0.42300001  0.00000000  0.17068417   0.00
0.42300001  0.00000000  0.16821049   0.00
0.42300001  0.00000000  0.16573681   0.00
0.42300001  0.00000000  0.16326313   0.00
0.42300001  0.00000000  0.16078945   0.00
0.42300001  0.00000000  0.15831576   0.00
0.42300001  0.00000000  0.15584208   0.00
0.42300001  0.00000000  0.15336840   0.00
0.42300001  0.00000000  0.15089472   0.00
0.42300001  0.00000000  0.14842103   0.00
0.42300001  0.00000000  0.14594735   0.00
0.42300001  0.00000000  0.14347367   0.00
0.42300001  0.00000000  0.14099999   0.00
0.42300001  0.00000000  0.13852631   0.00
0.42300001  0.00000000  0.13605259   0.00
0.42300001  0.00000000  0.13357891   0.00
0.42300001  0.00000000  0.13110523   0.00
0.42300001  0.00000000  0.12863155   0.00
0.42300001  0.00000000  0.12615786   0.00
0.42300001  0.00000000  0.12368419   0.00
0.42300001  0.00000000  0.12121051   0.00
0.42300001  0.00000000  0.11873683   0.00
0.42300001  0.00000000  0.11626311   0.00
0.42300001  0.00000000  0.11378946   0.00
0.42300001  0.00000000  0.11131575   0.00
0.42300001  0.00000000  0.10884210   0.00
0.42300001  0.00000000  0.10636842   0.00
0.42300001  0.00000000  0.10389470   0.00
0.42300001  0.00000000  0.10142105   0.00
0.42300001  0.00000000  0.09894734   0.00
0.42300001  0.00000000  0.09647369   0.00
0.42300001  0.00000000  0.09399997   0.00
0.42300001  0.00000000  0.09152629   0.00
0.42300001  0.00000000  0.08905261   0.00
0.42300001  0.00000000  0.08657893   0.00
0.42300001  0.00000000  0.08410525   0.00
0.42300001  0.00000000  0.08163156   0.00
0.42300001  0.00000000  0.07915785   0.00
0.42300001  0.00000000  0.07668420   0.00
0.42300001  0.00000000  0.07421049   0.00
0.42300001  0.00000000  0.07173683   0.00
0.42300001  0.00000000  0.06926315   0.00
0.42300001  0.00000000  0.06678944   0.00
0.42300001  0.00000000  0.06431579   0.00
0.42300001  0.00000000  0.06184208   0.00
0.42300001  0.00000000  0.05936842   0.00
0.42300001  0.00000000  0.05689471   0.00
0.42300001  0.00000000  0.05442103   0.00
0.42300001  0.00000000  0.05194735   0.00
0.42300001  0.00000000  0.04947367   0.00
0.42300001  0.00000000  0.04699998   0.00
0.42300001  0.00000000  0.04452630   0.00
0.42300001  0.00000000  0.04205259   0.00
0.42300001  0.00000000  0.03957894   0.00
0.42300001  0.00000000  0.03710523   0.00
0.42300001  0.00000000  0.03463157   0.00
0.42300001  0.00000000  0.03215786   0.00
0.42300001  0.00000000  0.02968418   0.00
0.42300001  0.00000000  0.02721053   0.00
0.42300001  0.00000000  0.02473681   0.00
0.42300001  0.00000000  0.02226316   0.00
0.42300001  0.00000000  0.01978945   0.00
0.42300001  0.00000000  0.01731577   0.00
0.42300001  0.00000000  0.01484209   0.00
0.42300001  0.00000000  0.01236840   0.00
0.42300001  0.00000000  0.00989472   0.00
0.42300001  0.00000000  0.00742104   0.00
0.42300001  0.00000000  0.00494733   0.00
0.42300001  0.00000000  0.00247367   0.00
0.42300001  0.00000000  -.00000004   0.00
0.42300001  0.00000000  0.00247368   0.00
0.42300001  0.00000000  0.00494737   0.00
0.42300001  0.00000000  0.00742105   0.00
0.42300001  0.00000000  0.00989474   0.00
0.42300001  0.00000000  0.01236842   0.00
0.42300001  0.00000000  0.01484211   0.00
0.42300001  0.00000000  0.01731579   0.00
0.42300001  0.00000000  0.01978947   0.00
0.42300001  0.00000000  0.02226316   0.00
0.42300001  0.00000000  0.02473684   0.00
0.42300001  0.00000000  0.02721053   0.00
0.42300001  0.00000000  0.02968421   0.00
0.42300001  0.00000000  0.03215790   0.00
0.42300001  0.00000000  0.03463158   0.00
0.42300001  0.00000000  0.03710527   0.00
0.42300001  0.00000000  0.03957895   0.00
0.42300001  0.00000000  0.04205263   0.00
0.42300001  0.00000000  0.04452632   0.00
0.42300001  0.00000000  0.04700000   0.00
0.42300001  0.00000000  0.04947368   0.00
0.42300001  0.00000000  0.05194737   0.00
0.42300001  0.00000000  0.05442106   0.00
0.42300001  0.00000000  0.05689474   0.00
0.42300001  0.00000000  0.05936843   0.00
0.42300001  0.00000000  0.06184211   0.00
0.42300001  0.00000000  0.06431580   0.00
0.42300001  0.00000000  0.06678948   0.00
0.42300001  0.00000000  0.06926316   0.00
0.42300001  0.00000000  0.07173685   0.00
0.42300001  0.00000000  0.07421053   0.00
0.42300001  0.00000000  0.07668422   0.00
0.42300001  0.00000000  0.07915790   0.00
0.42300001  0.00000000  0.08163158   0.00
0.42300001  0.00000000  0.08410527   0.00
0.42300001  0.00000000  0.08657895   0.00
0.42300001  0.00000000  0.08905264   0.00
0.42300001  0.00000000  0.09152632   0.00
0.42300001  0.00000000  0.09400000   0.00
0.42300001  0.00000000  0.09647369   0.00
0.42300001  0.00000000  0.09894737   0.00
0.42300001  0.00000000  0.10142106   0.00
0.42300001  0.00000000  0.10389474   0.00
0.42300001  0.00000000  0.10636842   0.00
0.42300001  0.00000000  0.10884211   0.00
0.42300001  0.00000000  0.11131579   0.00
0.42300001  0.00000000  0.11378948   0.00
0.42300001  0.00000000  0.11626317   0.00
0.42300001  0.00000000  0.11873686   0.00
0.42300001  0.00000000  0.12121054   0.00
0.42300001  0.00000000  0.12368421   0.00
0.42300001  0.00000000  0.12615791   0.00
0.42300001  0.00000000  0.12863159   0.00
0.42300001  0.00000000  0.13110527   0.00
0.42300001  0.00000000  0.13357896   0.00
0.42300001  0.00000000  0.13605264   0.00
0.42300001  0.00000000  0.13852632   0.00
0.42300001  0.00000000  0.14100000   0.00
0.42300001  0.00000000  0.14347370   0.00
0.42300001  0.00000000  0.14594738   0.00
0.42300001  0.00000000  0.14842106   0.00
0.42300001  0.00000000  0.15089475   0.00
0.42300001  0.00000000  0.15336844   0.00
0.42300001  0.00000000  0.15584213   0.00
0.42300001  0.00000000  0.15831579   0.00
0.42300001  0.00000000  0.16078947   0.00
0.42300001  0.00000000  0.16326316   0.00
0.42300001  0.00000000  0.16573685   0.00
0.42300001  0.00000000  0.16821054   0.00
0.42300001  0.00000000  0.17068422   0.00
0.42300001  0.00000000  0.17315790   0.00
0.42300001  0.00000000  0.17563158   0.00
0.42300001  0.00000000  0.17810528   0.00
0.42300001  0.00000000  0.18057896   0.00
0.42300001  0.00000000  0.18305264   0.00
0.42300001  0.00000000  0.18552633   0.00
0.42300001  0.00000000  0.18800001   0.00
0.42300001  0.00000000  0.19047371   0.00
0.42300001  0.00000000  0.19294739   0.00
0.42300001  0.00000000  0.19542107   0.00
0.42300001  0.00000000  0.19789474   0.00
0.42300001  0.00000000  0.20036842   0.00
0.42300001  0.00000000  0.20284212   0.00
0.42300001  0.00000000  0.20531580   0.00
0.42300001  0.00000000  0.20778948   0.00
0.42300001  0.00000000  0.21026316   0.00
0.42300001  0.00000000  0.21273685   0.00
0.42300001  0.00000000  0.21521054   0.00
0.42300001  0.00000000  0.21768422   0.00
0.42300001  0.00000000  0.22015791   0.00
0.42300001  0.00000000  0.22263159   0.00
0.42300001  0.00000000  0.22510527   0.00
0.42300001  0.00000000  0.22757897   0.00
0.42300001  0.00000000  0.23005265   0.00
0.42300001  0.00000000  0.23252633   0.00
0.42300001  0.00000000  0.23500001   0.00
0.42300001  0.00000000  0.23747371   0.00
0.42300001  0.00000000  0.23994739   0.00
0.42300001  0.00000000  0.24242108   0.00
0.42300001  0.00000000  0.24489474   0.00
0.42300001  0.00000000  0.24736843   0.00
0.42300001  0.00000000  0.24984212   0.00
0.42300001  0.00000000  0.25231582   0.00
0.42300001  0.00000000  0.25478950   0.00
0.42300001  0.00000000  0.25726318   0.00
0.42300001  0.00000000  0.25973687   0.00
0.42300001  0.00000000  0.26221055   0.00
0.42300001  0.00000000  0.26468423   0.00
0.42300001  0.00000000  0.26715791   0.00
0.42300001  0.00000000  0.26963159   0.00
0.42300001  0.00000000  0.27210528   0.00
0.42300001  0.00000000  0.27457896   0.00
0.42300001  0.00000000  0.27705264   0.00
0.42300001  0.00000000  0.27952632   0.00
0.42300001  0.00000000  0.28200001   0.00
0.42300001  0.00000000  0.28447369   0.00
0.42300001  0.00000000  0.28694740   0.00
0.42300001  0.00000000  0.28942108   0.00
0.42300001  0.00000000  0.29189476   0.00
0.42300001  0.00000000  0.29436845   0.00
0.42300001  0.00000000  0.29684213   0.00
0.42300001  0.00000000  0.29931581   0.00
0.42300001  0.00000000  0.30178949   0.00
0.42300001  0.00000000  0.30426317   0.00
0.42300001  0.00000000  0.30673689   0.00
0.42300001  0.00000000  0.30921054   0.00
0.42300001  0.00000000  0.31168425   0.00
0.42300001  0.00000000  0.31415790   0.00
0.42300001  0.00000000  0.31663159   0.00
0.42300001  0.00000000  0.31910530   0.00
0.42300001  0.00000000  0.32157895   0.00
0.42300001  0.00000000  0.32405266   0.00
0.42300001  0.00000000  0.32652631   0.00
0.42300001  0.00000000  0.32900003   0.00
0.42300001  0.00000000  0.33147371   0.00
0.42300001  0.00000000  0.33394739   0.00
0.42300001  0.00000000  0.33642107   0.00
0.42300001  0.00000000  0.33889475   0.00
0.42300001  0.00000000  0.34136844   0.00
0.42300001  0.00000000  0.34384215   0.00
0.42300001  0.00000000  0.34631580   0.00
0.42300001  0.00000000  0.34878951   0.00
0.42300001  0.00000000  0.35126317   0.00
0.42300001  0.00000000  0.35373685   0.00
0.42300001  0.00000000  0.35621056   0.00
0.42300001  0.00000000  0.35868421   0.00
0.42300001  0.00000000  0.36115792   0.00
0.42300001  0.00000000  0.36363158   0.00
0.42300001  0.00000000  0.36610529   0.00
0.42300001  0.00000000  0.36857897   0.00
0.42300001  0.00000000  0.37105265   0.00
0.42300001  0.00000000  0.37352633   0.00
0.42300001  0.00000000  0.37600002   0.00
0.42300001  0.00000000  0.37847370   0.00
0.42300001  0.00000000  0.38094741   0.00
0.42300001  0.00000000  0.38342106   0.00
0.42300001  0.00000000  0.38589478   0.00
0.42300001  0.00000000  0.38836843   0.00
0.42300001  0.00000000  0.39084214   0.00
0.42300001  0.00000000  0.39331582   0.00
0.42300001  0.00000000  0.39578947   0.00
0.42300001  0.00000000  0.39826319   0.00
0.42300001  0.00000000  0.40073684   0.00
0.42300001  0.00000000  0.40321055   0.00
0.42300001  0.00000000  0.40568423   0.00
0.42300001  0.00000000  0.40815791   0.00
0.42300001  0.00000000  0.41063160   0.00
0.42300001  0.00000000  0.41310528   0.00
0.42300001  0.00000000  0.41557896   0.00
0.42300001  0.00000000  0.41805267   0.00
0.42300001  0.00000000  0.42052633   0.00
0.42300001  0.00000000  0.42300004   0.00
0.42300001  0.00247525  0.42300001   0.00
0.42300001  0.00495049  0.42300001   0.00
0.42300001  0.00742574  0.42300001   0.00
0.42300001  0.00990099  0.42300001   0.00
0.42300001  0.01237624  0.42300001   0.00
0.42300001  0.01485148  0.42300001   0.00
0.42300001  0.01732673  0.42300001   0.00
0.42300001  0.01980198  0.42300001   0.00
0.42300001  0.02227723  0.42300001   0.00
0.42300001  0.02475248  0.42300001   0.00
0.42300001  0.02722772  0.42300001   0.00
0.42300001  0.02970297  0.42300001   0.00
0.42300001  0.03217822  0.42300001   0.00
0.42300001  0.03465347  0.42300001   0.00
0.42300001  0.03712871  0.42300001   0.00
0.42300001  0.03960396  0.42300001   0.00
0.42300001  0.04207921  0.42300001   0.00
0.42300001  0.04455445  0.42300001   0.00
0.42300001  0.04702970  0.42300001   0.00
0.42300001  0.04950495  0.42300001   0.00
0.42300001  0.05198020  0.42300001   0.00
0.42300001  0.05445544  0.42300001   0.00
0.42300001  0.05693069  0.42300001   0.00
0.42300001  0.05940594  0.42300001   0.00
0.42300001  0.06188119  0.42300001   0.00
0.42300001  0.06435643  0.42300001   0.00
0.42300001  0.06683169  0.42300001   0.00
0.42300001  0.06930693  0.42300001   0.00
0.42300001  0.07178218  0.42300001   0.00
0.42300001  0.07425743  0.42300001   0.00
0.42300001  0.07673267  0.42300001   0.00
0.42300001  0.07920792  0.42300001   0.00
0.42300001  0.08168317  0.42300001   0.00
0.42300001  0.08415841  0.42300001   0.00
0.42300001  0.08663366  0.42300001   0.00
0.42300001  0.08910891  0.42300001   0.00
0.42300001  0.09158415  0.42300001   0.00
0.42300001  0.09405941  0.42300001   0.00
0.42300001  0.09653465  0.42300001   0.00
0.42300001  0.09900990  0.42300001   0.00
0.42300001  0.10148515  0.42300001   0.00
0.42300001  0.10396039  0.42300001   0.00
0.42300001  0.10643564  0.42300001   0.00
0.42300001  0.10891089  0.42300001   0.00
0.42300001  0.11138614  0.42300001   0.00
0.42300001  0.11386138  0.42300001   0.00
0.42300001  0.11633663  0.42300001   0.00
0.42300001  0.11881188  0.42300001   0.00
0.42300001  0.12128713  0.42300001   0.00
0.42300001  0.12376238  0.42300001   0.00
0.42300001  0.12623762  0.42300001   0.00
0.42300001  0.12871286  0.42300001   0.00
0.42300001  0.13118811  0.42300001   0.00
0.42300001  0.13366337  0.42300001   0.00
0.42300001  0.13613862  0.42300001   0.00
0.42300001  0.13861386  0.42300001   0.00
0.42300001  0.14108911  0.42300001   0.00
0.42300001  0.14356436  0.42300001   0.00
0.42300001  0.14603961  0.42300001   0.00
0.42300001  0.14851485  0.42300001   0.00
0.42300001  0.15099010  0.42300001   0.00
0.42300001  0.15346535  0.42300001   0.00
0.42300001  0.15594059  0.42300001   0.00
0.42300001  0.15841584  0.42300001   0.00
0.42300001  0.16089109  0.42300001   0.00
0.42300001  0.16336633  0.42300001   0.00
0.42300001  0.16584158  0.42300001   0.00
0.42300001  0.16831683  0.42300001   0.00
0.42300001  0.17079207  0.42300001   0.00
0.42300001  0.17326732  0.42300001   0.00
0.42300001  0.17574257  0.42300001   0.00
0.42300001  0.17821781  0.42300001   0.00
0.42300001  0.18069306  0.42300001   0.00
0.42300001  0.18316831  0.42300001   0.00
0.42300001  0.18564357  0.42300001   0.00
0.42300001  0.18811882  0.42300001   0.00
0.42300001  0.19059406  0.42300001   0.00
0.42300001  0.19306931  0.42300001   0.00
0.42300001  0.19554456  0.42300001   0.00
0.42300001  0.19801980  0.42300001   0.00
0.42300001  0.20049505  0.42300001   0.00
0.42300001  0.20297030  0.42300001   0.00
0.42300001  0.20544554  0.42300001   0.00
0.42300001  0.20792079  0.42300001   0.00
0.42300001  0.21039604  0.42300001   0.00
0.42300001  0.21287128  0.42300001   0.00
0.42300001  0.21534653  0.42300001   0.00
0.42300001  0.21782178  0.42300001   0.00
0.42300001  0.22029702  0.42300001   0.00
0.42300001  0.22277227  0.42300001   0.00
0.42300001  0.22524752  0.42300001   0.00
0.42300001  0.22772276  0.42300001   0.00
0.42300001  0.23019801  0.42300001   0.00
0.42300001  0.23267326  0.42300001   0.00
0.42300001  0.23514850  0.42300001   0.00
0.42300001  0.23762375  0.42300001   0.00
0.42300001  0.24009901  0.42300001   0.00
0.42300001  0.24257426  0.42300001   0.00
0.42300001  0.24504951  0.42300001   0.00
0.42300001  0.24752475  0.42300001   0.00
0.42300001  0.25000000  0.42300001   0.00
0.42300001  0.25247523  0.42300001   0.00
0.42300001  0.25495049  0.42300001   0.00
0.42300001  0.25742573  0.42300001   0.00
0.42300001  0.25990099  0.42300001   0.00
0.42300001  0.26237622  0.42300001   0.00
0.42300001  0.26485148  0.42300001   0.00
0.42300001  0.26732674  0.42300001   0.00
0.42300001  0.26980197  0.42300001   0.00
0.42300001  0.27227724  0.42300001   0.00
0.42300001  0.27475247  0.42300001   0.00
0.42300001  0.27722773  0.42300001   0.00
0.42300001  0.27970296  0.42300001   0.00
0.42300001  0.28217822  0.42300001   0.00
0.42300001  0.28465346  0.42300001   0.00
0.42300001  0.28712872  0.42300001   0.00
0.42300001  0.28960395  0.42300001   0.00
0.42300001  0.29207921  0.42300001   0.00
0.42300001  0.29455444  0.42300001   0.00
0.42300001  0.29702970  0.42300001   0.00
0.42300001  0.29950494  0.42300001   0.00
0.42300001  0.30198020  0.42300001   0.00
0.42300001  0.30445543  0.42300001   0.00
0.42300001  0.30693069  0.42300001   0.00
0.42300001  0.30940592  0.42300001   0.00
0.42300001  0.31188118  0.42300001   0.00
0.42300001  0.31435642  0.42300001   0.00
0.42300001  0.31683168  0.42300001   0.00
0.42300001  0.31930694  0.42300001   0.00
0.42300001  0.32178217  0.42300001   0.00
0.42300001  0.32425743  0.42300001   0.00
0.42300001  0.32673267  0.42300001   0.00
0.42300001  0.32920793  0.42300001   0.00
0.42300001  0.33168316  0.42300001   0.00
0.42300001  0.33415842  0.42300001   0.00
0.42300001  0.33663365  0.42300001   0.00
0.42300001  0.33910891  0.42300001   0.00
0.42300001  0.34158415  0.42300001   0.00
0.42300001  0.34405941  0.42300001   0.00
0.42300001  0.34653464  0.42300001   0.00
0.42300001  0.34900990  0.42300001   0.00
0.42300001  0.35148513  0.42300001   0.00
0.42300001  0.35396039  0.42300001   0.00
0.42300001  0.35643563  0.42300001   0.00
0.42300001  0.35891089  0.42300001   0.00
0.42300001  0.36138612  0.42300001   0.00
0.42300001  0.36386138  0.42300001   0.00
0.42300001  0.36633661  0.42300001   0.00
0.42300001  0.36881188  0.42300001   0.00
0.42300001  0.37128714  0.42300001   0.00
0.42300001  0.37376237  0.42300001   0.00
0.42300001  0.37623763  0.42300001   0.00
0.42300001  0.37871286  0.42300001   0.00
0.42300001  0.38118812  0.42300001   0.00
0.42300001  0.38366336  0.42300001   0.00
0.42300001  0.38613862  0.42300001   0.00
0.42300001  0.38861385  0.42300001   0.00
0.42300001  0.39108911  0.42300001   0.00
0.42300001  0.39356434  0.42300001   0.00
0.42300001  0.39603961  0.42300001   0.00
0.42300001  0.39851484  0.42300001   0.00
0.42300001  0.40099010  0.42300001   0.00
0.42300001  0.40346533  0.42300001   0.00
0.42300001  0.40594059  0.42300001   0.00
0.42300001  0.40841582  0.42300001   0.00
0.42300001  0.41089109  0.42300001   0.00
0.42300001  0.41336632  0.42300001   0.00
0.42300001  0.41584158  0.42300001   0.00
0.42300001  0.41831681  0.42300001   0.00