C N H Pb I                              
   1.00000000000000     
    12.5768374277686394    0.0019159116494978    0.1381987933539664
     0.0011956322447466   12.4575380825249127   -0.0007464134870236
     0.1394107043392118    0.0000890449825412   12.7474206252920563
   C    N    H    Pb   I 
     8     8    48     8    24
Direct
  0.1992243743395363  0.2499175748447584  0.2254418062603634
  0.6947638904857598  0.2498989753838501  0.2323889024207304
  0.1947638904857598  0.7498989753838501  0.2323889024207304
  0.6992243743395363  0.7499175748447584  0.2254418062603634
  0.1992243743395363  0.2499175748447584  0.7254418062603634
  0.6947638904857598  0.2498989753838501  0.7323889024207304
  0.1947638904857598  0.7498989753838501  0.7323889024207304
  0.6992243743395363  0.7499175748447584  0.7254418062603634
  0.3051509608892857  0.2500106960478945  0.2740807719091762
  0.8039234769441492  0.2499965851852721  0.2736878210394309
  0.3039234769441492  0.7499965851852721  0.2736878210394309
  0.8051509608892857  0.7500106960478945  0.2740807719091762
  0.3051509608892857  0.2500106960478945  0.7740807719091762
  0.8039234769441492  0.2499965851852721  0.7736878210394309
  0.3039234769441492  0.7499965851852721  0.7736878210394309
  0.8051509608892857  0.7500106960478945  0.7740807719091762
  0.2103229204730255  0.2498208006702072  0.1396261059282793
  0.6998274140004810  0.2498213919778536  0.1461511459651490
  0.1998274140004810  0.7498213919778536  0.1461511459651490
  0.7103229204730255  0.7498208006702072  0.1396261059282793
  0.2103229204730255  0.2498208006702072  0.6396261059282793
  0.6998274140004810  0.2498213919778536  0.6461511459651490
  0.1998274140004810  0.7498213919778536  0.6461511459651490
  0.7103229204730255  0.7498208006702072  0.6396261059282793
  0.1557317839182488  0.3223868815340865  0.2506484961037216
  0.6529438294385983  0.3223174918466682  0.2603821423889130
  0.1529438294385983  0.8223174918466682  0.2603821423889130
  0.6557317839182488  0.8223868815340865  0.2506484961037216
  0.1557317839182488  0.3223868815340865  0.7506484961037216
  0.6529438294385983  0.3223174918466682  0.7603821423889130
  0.1529438294385983  0.8223174918466682  0.7603821423889130
  0.6557317839182488  0.8223868815340865  0.7506484961037216
  0.1558226524235025  0.1774707467684351  0.2508003277043969
  0.6530630148549648  0.1774814001818896  0.2605010857162284
  0.1530630148549648  0.6774814001818896  0.2605010857162284
  0.6558226524235025  0.6774707467684351  0.2508003277043969
  0.1558226524235025  0.1774707467684351  0.7508003277043969
  0.6530630148549648  0.1774814001818896  0.7605010857162284
  0.1530630148549648  0.6774814001818896  0.7605010857162284
  0.6558226524235025  0.6774707467684351  0.7508003277043969
  0.3494544887105775  0.3179486625892665  0.2524147363060436
  0.8468146660428317  0.3177999032251790  0.2490982456604343
  0.3468146660428317  0.8177999032251790  0.2490982456604343
  0.8494544887105775  0.8179486625892665  0.2524147363060436
  0.3494544887105775  0.3179486625892665  0.7524147363060436
  0.8468146660428317  0.3177999032251790  0.7490982456604343
  0.3468146660428317  0.8177999032251790  0.7490982456604343
  0.8494544887105775  0.8179486625892665  0.7524147363060436
  0.3495114606862302  0.1820337057902393  0.2525662964154876
  0.8468991398208487  0.1821760691524261  0.2492155032396397
  0.3468991398208487  0.6821760691524261  0.2492155032396397
  0.8495114606862302  0.6820337057902393  0.2525662964154876
  0.3495114606862302  0.1820337057902393  0.7525662964154876
  0.8468991398208487  0.1821760691524261  0.7492155032396397
  0.3468991398208487  0.6821760691524261  0.7492155032396397
  0.8495114606862302  0.6820337057902393  0.7525662964154876
  0.3006655283604118  0.2501128011492355  0.3557086076328417
  0.8056746175856162  0.2500742422897062  0.3555098817068227
  0.3056746175856162  0.7500742422897062  0.3555098817068227
  0.8006655283604118  0.7501128011492355  0.3557086076328417
  0.3006655283604118  0.2501128011492355  0.8557086076328417
  0.8056746175856162  0.2500742422897062  0.8555098817068227
  0.3056746175856162  0.7500742422897062  0.8555098817068227
  0.8006655283604118  0.7501128011492355  0.8557086076328417
  0.4724437311065088  0.5003534732209118  0.4888109622395973
  0.9724398208512142  0.4996261165089493  0.4888119317900106
  0.4724398208512142  0.9996261165089493  0.4888119317900106
  0.9724437311065088  0.0003534732209189  0.4888109622395973
  0.4724437311065088  0.5003534732209118  0.9888109622395973
  0.9724398208512142  0.4996261165089493  0.9888119317900106
  0.4724398208512142  0.9996261165089493  0.9888119317900106
  0.9724437311065088  0.0003534732209189  0.9888109622395973
  0.4547490936889105  0.5001846951020852  0.2375715894327541
  0.9547382549708914  0.4997974039225426  0.2375738944842354
  0.4547382549708914  0.9997974039225426  0.2375738944842354
  0.9547490936889105  0.0001846951020852  0.2375715894327541
  0.4547490936889105  0.5001846951020852  0.7375715894327541
  0.9547382549708914  0.4997974039225426  0.7375738944842354
  0.4547382549708914  0.9997974039225426  0.7375738944842354
  0.9547490936889105  0.0001846951020852  0.7375715894327541
  0.4566410482183869  0.2499776266671461  0.0105157016575959
  0.9426298309094037  0.2499803944239360  0.0131487338108229
  0.4426298309094037  0.7499803944239360  0.0131487338108229
  0.9566410482183869  0.7499776266671461  0.0105157016575959
  0.4566410482183869  0.2499776266671461  0.5105157016575959
  0.9426298309094037  0.2499803944239360  0.5131487338108229
  0.4426298309094037  0.7499803944239360  0.5131487338108229
  0.9566410482183869  0.7499776266671461  0.5105157016575959
  0.2161731295194897  0.4916357744824040  0.4612397005950370
  0.7161697473610857  0.5083590982351396  0.4612397030921755
  0.2161697473610857  0.0083590982351396  0.4612397030921755
  0.7161731295194897  0.9916357744824040  0.4612397005950370
  0.2161731295194897  0.4916357744824040  0.9612397005950370
  0.7161697473610857  0.5083590982351396  0.9612397030921755
  0.2161697473610857  0.0083590982351396  0.9612397030921755
  0.7161731295194897  0.9916357744824040  0.9612397005950370
 
  0.00000000E+00  0.00000000E+00  0.00000000E+00
  0.00000000E+00  0.00000000E+00  0.00000000E+00
  0.00000000E+00  0.00000000E+00  0.00000000E+00
  0.00000000E+00  0.00000000E+00  0.00000000E+00
  0.00000000E+00  0.00000000E+00  0.00000000E+00
  0.00000000E+00  0.00000000E+00  0.00000000E+00
  0.00000000E+00  0.00000000E+00  0.00000000E+00
  0.00000000E+00  0.00000000E+00  0.00000000E+00
  0.00000000E+00  0.00000000E+00  0.00000000E+00
  0.00000000E+00  0.00000000E+00  0.00000000E+00
  0.00000000E+00  0.00000000E+00  0.00000000E+00
  0.00000000E+00  0.00000000E+00  0.00000000E+00
  0.00000000E+00  0.00000000E+00  0.00000000E+00
  0.00000000E+00  0.00000000E+00  0.00000000E+00
  0.00000000E+00  0.00000000E+00  0.00000000E+00
  0.00000000E+00  0.00000000E+00  0.00000000E+00
  0.00000000E+00  0.00000000E+00  0.00000000E+00
  0.00000000E+00  0.00000000E+00  0.00000000E+00
  0.00000000E+00  0.00000000E+00  0.00000000E+00
  0.00000000E+00  0.00000000E+00  0.00000000E+00
  0.00000000E+00  0.00000000E+00  0.00000000E+00
  0.00000000E+00  0.00000000E+00  0.00000000E+00
  0.00000000E+00  0.00000000E+00  0.00000000E+00
  0.00000000E+00  0.00000000E+00  0.00000000E+00
  0.00000000E+00  0.00000000E+00  0.00000000E+00
  0.00000000E+00  0.00000000E+00  0.00000000E+00
  0.00000000E+00  0.00000000E+00  0.00000000E+00
  0.00000000E+00  0.00000000E+00  0.00000000E+00
  0.00000000E+00  0.00000000E+00  0.00000000E+00
  0.00000000E+00  0.00000000E+00  0.00000000E+00
  0.00000000E+00  0.00000000E+00  0.00000000E+00
  0.00000000E+00  0.00000000E+00  0.00000000E+00
  0.00000000E+00  0.00000000E+00  0.00000000E+00
  0.00000000E+00  0.00000000E+00  0.00000000E+00
  0.00000000E+00  0.00000000E+00  0.00000000E+00
  0.00000000E+00  0.00000000E+00  0.00000000E+00
  0.00000000E+00  0.00000000E+00  0.00000000E+00
  0.00000000E+00  0.00000000E+00  0.00000000E+00
  0.00000000E+00  0.00000000E+00  0.00000000E+00
  0.00000000E+00  0.00000000E+00  0.00000000E+00
  0.00000000E+00  0.00000000E+00  0.00000000E+00
  0.00000000E+00  0.00000000E+00  0.00000000E+00
  0.00000000E+00  0.00000000E+00  0.00000000E+00
  0.00000000E+00  0.00000000E+00  0.00000000E+00
  0.00000000E+00  0.00000000E+00  0.00000000E+00
  0.00000000E+00  0.00000000E+00  0.00000000E+00
  0.00000000E+00  0.00000000E+00  0.00000000E+00
  0.00000000E+00  0.00000000E+00  0.00000000E+00
  0.00000000E+00  0.00000000E+00  0.00000000E+00
  0.00000000E+00  0.00000000E+00  0.00000000E+00
  0.00000000E+00  0.00000000E+00  0.00000000E+00
  0.00000000E+00  0.00000000E+00  0.00000000E+00
  0.00000000E+00  0.00000000E+00  0.00000000E+00
  0.00000000E+00  0.00000000E+00  0.00000000E+00
  0.00000000E+00  0.00000000E+00  0.00000000E+00
  0.00000000E+00  0.00000000E+00  0.00000000E+00
  0.00000000E+00  0.00000000E+00  0.00000000E+00
  0.00000000E+00  0.00000000E+00  0.00000000E+00
  0.00000000E+00  0.00000000E+00  0.00000000E+00
  0.00000000E+00  0.00000000E+00  0.00000000E+00
  0.00000000E+00  0.00000000E+00  0.00000000E+00
  0.00000000E+00  0.00000000E+00  0.00000000E+00
  0.00000000E+00  0.00000000E+00  0.00000000E+00
  0.00000000E+00  0.00000000E+00  0.00000000E+00
  0.00000000E+00  0.00000000E+00  0.00000000E+00
  0.00000000E+00  0.00000000E+00  0.00000000E+00
  0.00000000E+00  0.00000000E+00  0.00000000E+00
  0.00000000E+00  0.00000000E+00  0.00000000E+00
  0.00000000E+00  0.00000000E+00  0.00000000E+00
  0.00000000E+00  0.00000000E+00  0.00000000E+00
  0.00000000E+00  0.00000000E+00  0.00000000E+00
  0.00000000E+00  0.00000000E+00  0.00000000E+00
  0.00000000E+00  0.00000000E+00  0.00000000E+00
  0.00000000E+00  0.00000000E+00  0.00000000E+00
  0.00000000E+00  0.00000000E+00  0.00000000E+00
  0.00000000E+00  0.00000000E+00  0.00000000E+00
  0.00000000E+00  0.00000000E+00  0.00000000E+00
  0.00000000E+00  0.00000000E+00  0.00000000E+00
  0.00000000E+00  0.00000000E+00  0.00000000E+00
  0.00000000E+00  0.00000000E+00  0.00000000E+00
  0.00000000E+00  0.00000000E+00  0.00000000E+00
  0.00000000E+00  0.00000000E+00  0.00000000E+00
  0.00000000E+00  0.00000000E+00  0.00000000E+00
  0.00000000E+00  0.00000000E+00  0.00000000E+00
  0.00000000E+00  0.00000000E+00  0.00000000E+00
  0.00000000E+00  0.00000000E+00  0.00000000E+00
  0.00000000E+00  0.00000000E+00  0.00000000E+00
  0.00000000E+00  0.00000000E+00  0.00000000E+00
  0.00000000E+00  0.00000000E+00  0.00000000E+00
  0.00000000E+00  0.00000000E+00  0.00000000E+00
  0.00000000E+00  0.00000000E+00  0.00000000E+00
  0.00000000E+00  0.00000000E+00  0.00000000E+00
  0.00000000E+00  0.00000000E+00  0.00000000E+00
  0.00000000E+00  0.00000000E+00  0.00000000E+00
  0.00000000E+00  0.00000000E+00  0.00000000E+00
  0.00000000E+00  0.00000000E+00  0.00000000E+00
