C N H Pb I
   1.0
    12.5768374277686394    0.0019159116494978    0.1381987933539664
     0.0011956322447466   12.4575380825249127   -0.0007464134870236
     0.1394107043392118    0.0000890449825412   12.7474206252920563
C   N   H  Pb   I
   8    8   48    8   24
Direct
  0.2033622592305255  0.2499348291227181  0.2189971502139458
  0.6906260055947706  0.2498817211058903  0.2388335584671480
  0.1906260055947705  0.7498817211058904  0.2388335584671480
  0.7033622592305253  0.7499348291227182  0.2189971502139458
  0.2033622592305255  0.2499348291227181  0.7189971502139458
  0.6906260055947706  0.2498817211058904  0.7388335584671480
  0.1906260055947705  0.7498817211058904  0.7388335584671480
  0.7033622592305253  0.7499348291227181  0.7189971502139458
  0.3062896685804207  0.2500237863598798  0.2744453030946150
  0.8027847692530140  0.2499834948732868  0.2733232898539921
  0.3027847692530141  0.7499834948732866  0.2733232898539921
  0.8062896685804206  0.7500237863598798  0.2744453030946151
  0.3062896685804207  0.2500237863598798  0.7744453030946150
  0.8027847692530140  0.2499834948732868  0.7733232898539921
  0.3027847692530141  0.7499834948732867  0.7733232898539921
  0.8062896685804205  0.7500237863598799  0.7744453030946150
  0.2200593524565697  0.2498202521281579  0.1335729813196675
  0.6900909820169366  0.2498219405199029  0.1522042705737608
  0.1900909820169367  0.7498219405199027  0.1522042705737608
  0.7200593524565695  0.7498202521281579  0.1335729813196675
  0.2200593524565697  0.2498202521281579  0.6335729813196674
  0.6900909820169366  0.2498219405199029  0.6522042705737608
  0.1900909820169367  0.7498219405199028  0.6522042705737608
  0.7200593524565695  0.7498202521281578  0.6335729813196674
  0.1583181030477948  0.3224512526984130  0.2416188237143595
  0.6503575103090522  0.3222531206823416  0.2694118147782751
  0.1503575103090522  0.8222531206823417  0.2694118147782752
  0.6583181030477948  0.8224512526984130  0.2416188237143595
  0.1583181030477948  0.3224512526984130  0.7416188237143596
  0.6503575103090520  0.3222531206823416  0.7694118147782751
  0.1503575103090523  0.8222531206823417  0.7694118147782750
  0.6583181030477948  0.8224512526984130  0.7416188237143595
  0.1583827026274280  0.1774608638498886  0.2418011649848130
  0.6505029646510392  0.1774912831004361  0.2695002484358123
  0.1505029646510392  0.6774912831004359  0.2695002484358123
  0.6583827026274277  0.6774608638498887  0.2418011649848130
  0.1583827026274280  0.1774608638498886  0.7418011649848130
  0.6505029646510391  0.1774912831004361  0.7695002484358123
  0.1505029646510392  0.6774912831004359  0.7695002484358122
  0.6583827026274278  0.6774608638498886  0.7418011649848131
  0.3519033894778047  0.3180866631168424  0.2554913658788490
  0.8443657652756043  0.3176619026976031  0.2460216160876289
  0.3443657652756045  0.8176619026976031  0.2460216160876289
  0.8519033894778046  0.8180866631168423  0.2554913658788490
  0.3519033894778046  0.3180866631168423  0.7554913658788488
  0.8443657652756041  0.3176619026976031  0.7460216160876290
  0.3443657652756045  0.8176619026976031  0.7460216160876290
  0.8519033894778045  0.8180866631168423  0.7554913658788489
  0.3519348486848520  0.1819016386816681  0.2556747476305734
  0.8444757518222267  0.1823081362609973  0.2461070520245538
  0.3444757518222269  0.6823081362609973  0.2461070520245538
  0.8519348486848518  0.6819016386816681  0.2556747476305734
  0.3519348486848520  0.1819016386816681  0.7556747476305734
  0.8444757518222267  0.1823081362609972  0.7461070520245539
  0.3444757518222268  0.6823081362609972  0.7461070520245539
  0.8519348486848518  0.6819016386816682  0.7556747476305733
  0.2960187153011055  0.2501485712870660  0.3558929609527167
  0.8103214306449225  0.2500384721518756  0.3553255283869478
  0.3103214306449225  0.7500384721518757  0.3553255283869478
  0.7960187153011054  0.7501485712870660  0.3558929609527166
  0.2960187153011055  0.2501485712870660  0.8558929609527166
  0.8103214306449225  0.2500384721518756  0.8553255283869479
  0.3103214306449225  0.7500384721518758  0.8553255283869479
  0.7960187153011054  0.7501485712870660  0.8558929609527167
  0.4724473585574338  0.5010282247607595  0.4888100628107131
  0.9724361934002890  0.4989513649691086  0.4888128312188947
  0.4724361934002891  0.9989513649691085  0.4888128312188948
  0.9724473585574336  0.0010282247607596  0.4888100628107131
  0.4724473585574338  0.5010282247607595  0.9888100628107133
  0.9724361934002891  0.4989513649691086  0.9888128312188947
  0.4724361934002890  0.9989513649691086  0.9888128312188947
  0.9724473585574336  0.0010282247607596  0.9888100628107134
  0.4547591485100881  0.5005439759273868  0.2375694510912548
  0.9547282001497134  0.4994381230972409  0.2375760328257347
  0.4547282001497136  0.9994381230972410  0.2375760328257347
  0.9547591485100881  0.0005439759273864  0.2375694510912549
  0.4547591485100881  0.5005439759273866  0.7375694510912548
  0.9547282001497134  0.4994381230972409  0.7375760328257347
  0.4547282001497135  0.9994381230972410  0.7375760328257347
  0.9547591485100883  0.0005439759273866  0.7375694510912548
  0.4696389216123305  0.2499750590849354  0.0080731002893329
  0.9296319575154600  0.2499829620061467  0.0155913351790859
  0.4296319575154599  0.7499829620061466  0.0155913351790859
  0.9696389216123303  0.7499750590849353  0.0080731002893329
  0.4696389216123305  0.2499750590849354  0.5080731002893328
  0.9296319575154599  0.2499829620061466  0.5155913351790860
  0.4296319575154599  0.7499829620061467  0.5155913351790858
  0.9696389216123303  0.7499750590849353  0.5080731002893329
  0.2161762670674788  0.4761219443796647  0.4612396982785030
  0.7161666098130964  0.5238729283378790  0.4612397054087096
  0.2161666098130966  0.0238729283378787  0.4612397054087096
  0.7161762670674787  0.9761219443796645  0.4612396982785030
  0.2161762670674788  0.4761219443796647  0.9612396982785030
  0.7161666098130965  0.5238729283378789  0.9612397054087096
  0.2161666098130966  0.0238729283378787  0.9612397054087097
  0.7161762670674788  0.9761219443796645  0.9612396982785030
