C N H Pb I                              
   1.00000000000000     
    12.5768374277686394    0.0019159116494978    0.1381987933539664
     0.0011956322447466   12.4575380825249127   -0.0007464134870236
     0.1394107043392118    0.0000890449825412   12.7474206252920563
   C    N    H    Pb   I 
     8     8    48     8    24
Direct
  0.2003394953029840  0.2499222247099837  0.2237050322202734
  0.6936487695223121  0.2498943255186248  0.2341256764608204
  0.1936487695223121  0.7498943255186248  0.2341256764608204
  0.7003394953029840  0.7499222247099837  0.2237050322202734
  0.2003394953029840  0.2499222247099837  0.7237050322202734
  0.6936487695223121  0.2498943255186248  0.7341256764608204
  0.1936487695223121  0.7498943255186248  0.7341256764608204
  0.7003394953029840  0.7499222247099837  0.7237050322202734
  0.3054578318755645  0.2500142237635501  0.2741790096266143
  0.8036166059578704  0.2499930574696165  0.2735895833219928
  0.3036166059578704  0.7499930574696165  0.2735895833219928
  0.8054578318755645  0.7500142237635501  0.2741790096266143
  0.3054578318755645  0.2500142237635501  0.7741790096266143
  0.8036166059578704  0.2499930574696165  0.7735895833219928
  0.3036166059578704  0.7499930574696165  0.7735895833219928
  0.8054578318755645  0.7500142237635501  0.7741790096266143
  0.2129467970911634  0.2498206528432974  0.1379948459190672
  0.6972035373823431  0.2498215398047634  0.1477824059743611
  0.1972035373823431  0.7498215398047634  0.1477824059743611
  0.7129467970911634  0.7498206528432974  0.1379948459190672
  0.2129467970911634  0.2498206528432974  0.6379948459190672
  0.6972035373823431  0.2498215398047634  0.6477824059743611
  0.1972035373823431  0.7498215398047634  0.6477824059743611
  0.7129467970911634  0.7498206528432974  0.6379948459190672
  0.1564287725381561  0.3224042289559392  0.2482150845324256
  0.6522468408186910  0.3223001444248155  0.2628155539602091
  0.1522468408186910  0.8223001444248155  0.2628155539602091
  0.6564287725381561  0.8224042289559392  0.2482150845324256
  0.1564287725381561  0.3224042289559392  0.7482150845324256
  0.6522468408186910  0.3223001444248155  0.7628155539602091
  0.1522468408186910  0.8223001444248155  0.7628155539602091
  0.6564287725381561  0.8224042289559392  0.7482150845324256
  0.1565125618156387  0.1774680834150644  0.2483751382014461
  0.6523731054628286  0.1774840635352604  0.2629262752191792
  0.1523731054628286  0.6774840635352604  0.2629262752191792
  0.6565125618156387  0.6774680834150644  0.2483751382014461
  0.1565125618156387  0.1774680834150644  0.7483751382014461
  0.6523731054628286  0.1774840635352604  0.7629262752191792
  0.1523731054628286  0.6774840635352604  0.7629262752191792
  0.6565125618156387  0.6774680834150644  0.7483751382014461
  0.3501144443775104  0.3179858524302901  0.2532438589674442
  0.8461547103758988  0.3177627133841554  0.2482691229990337
  0.3461547103758988  0.8177627133841554  0.2482691229990337
  0.8501144443775104  0.8179858524302901  0.2532438589674442
  0.3501144443775104  0.3179858524302901  0.7532438589674442
  0.8461547103758988  0.3177627133841554  0.7482691229990337
  0.3461547103758988  0.8177627133841554  0.7482691229990337
  0.8501144443775104  0.8179858524302901  0.7532438589674442
  0.3501645409025755  0.1819981149496925  0.2534039947094513
  0.8462460596045034  0.1822116599929728  0.2483778049456760
  0.3462460596045034  0.6822116599929728  0.2483778049456760
  0.8501645409025755  0.6819981149496925  0.2534039947094513
  0.3501645409025755  0.1819981149496925  0.7534039947094513
  0.8462460596045034  0.1822116599929728  0.7483778049456760
  0.3462460596045034  0.6822116599929728  0.7483778049456760
  0.8501645409025755  0.6819981149496925  0.7534039947094513
  0.2994132560541090  0.2501224408641178  0.3557582891143412
  0.8069268898919191  0.2500646025748239  0.3554602002253233
  0.3069268898919191  0.7500646025748239  0.3554602002253233
  0.7994132560541090  0.7501224408641178  0.3557582891143412
  0.2994132560541090  0.2501224408641178  0.8557582891143412
  0.8069268898919191  0.2500646025748239  0.8554602002253233
  0.3069268898919191  0.7500646025748239  0.8554602002253233
  0.7994132560541090  0.7501224408641178  0.8557582891143412
  0.4724447086703307  0.5005353123989096  0.4888107198519904
  0.9724388432873923  0.4994442773309586  0.4888121741776175
  0.4724388432873923  0.9994442773309657  0.4888121741776175
  0.9724447086703307  0.0005353123989025  0.4888107198519904
  0.4724447086703307  0.5005353123989096  0.9888107198519904
  0.9724388432873923  0.4994442773309586  0.9888121741776175
  0.4724388432873923  0.9994442773309657  0.9888121741776175
  0.9724447086703307  0.0005353123989025  0.9888107198519904
  0.4547518033684170  0.5002815178969726  0.2375710131698767
  0.9547355452913848  0.4997005811276551  0.2375744707471128
  0.4547355452913848  0.9997005811276551  0.2375744707471128
  0.9547518033684170  0.0002815178969726  0.2375710131698767
  0.4547518033684170  0.5002815178969726  0.7375710131698767
  0.9547355452913848  0.4997005811276551  0.7375744707471128
  0.4547355452913848  0.9997005811276551  0.7375744707471128
  0.9547518033684170  0.0002815178969726  0.7375710131698767
  0.4601438525456274  0.2499769347279468  0.0098574436192820
  0.9391270265821561  0.2499810863631353  0.0138069918491368
  0.4391270265821561  0.7499810863631353  0.0138069918491368
  0.9601438525456274  0.7499769347279468  0.0098574436192820
  0.4601438525456274  0.2499769347279468  0.5098574436192820
  0.9391270265821561  0.2499810863631353  0.5138069918491368
  0.4391270265821561  0.7499810863631353  0.5138069918491368
  0.9601438525456274  0.7499769347279468  0.5098574436192820
  0.2161739750590925  0.4874549435442148  0.4612396999707542
  0.7161689018214830  0.5125399291733288  0.4612397037164584
  0.2161689018214830  0.0125399291733288  0.4612397037164584
  0.7161739750590925  0.9874549435442148  0.4612396999707542
  0.2161739750590925  0.4874549435442148  0.9612396999707542
  0.7161689018214830  0.5125399291733288  0.9612397037164584
  0.2161689018214830  0.0125399291733288  0.9612397037164584
  0.7161739750590925  0.9874549435442148  0.9612396999707542
 
  0.00000000E+00  0.00000000E+00  0.00000000E+00
  0.00000000E+00  0.00000000E+00  0.00000000E+00
  0.00000000E+00  0.00000000E+00  0.00000000E+00
  0.00000000E+00  0.00000000E+00  0.00000000E+00
  0.00000000E+00  0.00000000E+00  0.00000000E+00
  0.00000000E+00  0.00000000E+00  0.00000000E+00
  0.00000000E+00  0.00000000E+00  0.00000000E+00
  0.00000000E+00  0.00000000E+00  0.00000000E+00
  0.00000000E+00  0.00000000E+00  0.00000000E+00
  0.00000000E+00  0.00000000E+00  0.00000000E+00
  0.00000000E+00  0.00000000E+00  0.00000000E+00
  0.00000000E+00  0.00000000E+00  0.00000000E+00
  0.00000000E+00  0.00000000E+00  0.00000000E+00
  0.00000000E+00  0.00000000E+00  0.00000000E+00
  0.00000000E+00  0.00000000E+00  0.00000000E+00
  0.00000000E+00  0.00000000E+00  0.00000000E+00
  0.00000000E+00  0.00000000E+00  0.00000000E+00
  0.00000000E+00  0.00000000E+00  0.00000000E+00
  0.00000000E+00  0.00000000E+00  0.00000000E+00
  0.00000000E+00  0.00000000E+00  0.00000000E+00
  0.00000000E+00  0.00000000E+00  0.00000000E+00
  0.00000000E+00  0.00000000E+00  0.00000000E+00
  0.00000000E+00  0.00000000E+00  0.00000000E+00
  0.00000000E+00  0.00000000E+00  0.00000000E+00
  0.00000000E+00  0.00000000E+00  0.00000000E+00
  0.00000000E+00  0.00000000E+00  0.00000000E+00
  0.00000000E+00  0.00000000E+00  0.00000000E+00
  0.00000000E+00  0.00000000E+00  0.00000000E+00
  0.00000000E+00  0.00000000E+00  0.00000000E+00
  0.00000000E+00  0.00000000E+00  0.00000000E+00
  0.00000000E+00  0.00000000E+00  0.00000000E+00
  0.00000000E+00  0.00000000E+00  0.00000000E+00
  0.00000000E+00  0.00000000E+00  0.00000000E+00
  0.00000000E+00  0.00000000E+00  0.00000000E+00
  0.00000000E+00  0.00000000E+00  0.00000000E+00
  0.00000000E+00  0.00000000E+00  0.00000000E+00
  0.00000000E+00  0.00000000E+00  0.00000000E+00
  0.00000000E+00  0.00000000E+00  0.00000000E+00
  0.00000000E+00  0.00000000E+00  0.00000000E+00
  0.00000000E+00  0.00000000E+00  0.00000000E+00
  0.00000000E+00  0.00000000E+00  0.00000000E+00
  0.00000000E+00  0.00000000E+00  0.00000000E+00
  0.00000000E+00  0.00000000E+00  0.00000000E+00
  0.00000000E+00  0.00000000E+00  0.00000000E+00
  0.00000000E+00  0.00000000E+00  0.00000000E+00
  0.00000000E+00  0.00000000E+00  0.00000000E+00
  0.00000000E+00  0.00000000E+00  0.00000000E+00
  0.00000000E+00  0.00000000E+00  0.00000000E+00
  0.00000000E+00  0.00000000E+00  0.00000000E+00
  0.00000000E+00  0.00000000E+00  0.00000000E+00
  0.00000000E+00  0.00000000E+00  0.00000000E+00
  0.00000000E+00  0.00000000E+00  0.00000000E+00
  0.00000000E+00  0.00000000E+00  0.00000000E+00
  0.00000000E+00  0.00000000E+00  0.00000000E+00
  0.00000000E+00  0.00000000E+00  0.00000000E+00
  0.00000000E+00  0.00000000E+00  0.00000000E+00
  0.00000000E+00  0.00000000E+00  0.00000000E+00
  0.00000000E+00  0.00000000E+00  0.00000000E+00
  0.00000000E+00  0.00000000E+00  0.00000000E+00
  0.00000000E+00  0.00000000E+00  0.00000000E+00
  0.00000000E+00  0.00000000E+00  0.00000000E+00
  0.00000000E+00  0.00000000E+00  0.00000000E+00
  0.00000000E+00  0.00000000E+00  0.00000000E+00
  0.00000000E+00  0.00000000E+00  0.00000000E+00
  0.00000000E+00  0.00000000E+00  0.00000000E+00
  0.00000000E+00  0.00000000E+00  0.00000000E+00
  0.00000000E+00  0.00000000E+00  0.00000000E+00
  0.00000000E+00  0.00000000E+00  0.00000000E+00
  0.00000000E+00  0.00000000E+00  0.00000000E+00
  0.00000000E+00  0.00000000E+00  0.00000000E+00
  0.00000000E+00  0.00000000E+00  0.00000000E+00
  0.00000000E+00  0.00000000E+00  0.00000000E+00
  0.00000000E+00  0.00000000E+00  0.00000000E+00
  0.00000000E+00  0.00000000E+00  0.00000000E+00
  0.00000000E+00  0.00000000E+00  0.00000000E+00
  0.00000000E+00  0.00000000E+00  0.00000000E+00
  0.00000000E+00  0.00000000E+00  0.00000000E+00
  0.00000000E+00  0.00000000E+00  0.00000000E+00
  0.00000000E+00  0.00000000E+00  0.00000000E+00
  0.00000000E+00  0.00000000E+00  0.00000000E+00
  0.00000000E+00  0.00000000E+00  0.00000000E+00
  0.00000000E+00  0.00000000E+00  0.00000000E+00
  0.00000000E+00  0.00000000E+00  0.00000000E+00
  0.00000000E+00  0.00000000E+00  0.00000000E+00
  0.00000000E+00  0.00000000E+00  0.00000000E+00
  0.00000000E+00  0.00000000E+00  0.00000000E+00
  0.00000000E+00  0.00000000E+00  0.00000000E+00
  0.00000000E+00  0.00000000E+00  0.00000000E+00
  0.00000000E+00  0.00000000E+00  0.00000000E+00
  0.00000000E+00  0.00000000E+00  0.00000000E+00
  0.00000000E+00  0.00000000E+00  0.00000000E+00
  0.00000000E+00  0.00000000E+00  0.00000000E+00
  0.00000000E+00  0.00000000E+00  0.00000000E+00
  0.00000000E+00  0.00000000E+00  0.00000000E+00
  0.00000000E+00  0.00000000E+00  0.00000000E+00
  0.00000000E+00  0.00000000E+00  0.00000000E+00
