C N H Pb I                              
   1.00000000000000     
    12.5768374277686394    0.0019159116494978    0.1381987933539664
     0.0011956322447466   12.4575380825249127   -0.0007464134870236
     0.1394107043392118    0.0000890449825412   12.7474206252920563
   C    N    H    Pb   I 
     8     8    48     8    24
Direct
  0.2025697372298723  0.2499315244404343  0.2202314841400863
  0.6914185275954239  0.2498850257881742  0.2375992245410075
  0.1914185275954239  0.7498850257881742  0.2375992245410075
  0.7025697372298723  0.7499315244404343  0.2202314841400863
  0.2025697372298723  0.2499315244404343  0.7202314841400863
  0.6914185275954239  0.2498850257881742  0.7375992245410075
  0.1914185275954239  0.7498850257881742  0.7375992245410075
  0.7025697372298723  0.7499315244404343  0.7202314841400863
  0.3060715738481363  0.2500212791948613  0.2743754850614906
  0.8030028639852986  0.2499860020383053  0.2733931078871166
  0.3030028639852986  0.7499860020383053  0.2733931078871166
  0.8060715738481292  0.7500212791948613  0.2743754850614906
  0.3060715738481363  0.2500212791948613  0.7743754850614906
  0.8030028639852986  0.2499860020383053  0.7733931078871166
  0.3030028639852986  0.7499860020383053  0.7733931078871166
  0.8060715738481292  0.7500212791948613  0.7743754850614906
  0.2181945503274392  0.2498203571894777  0.1347323259006288
  0.6919557841460673  0.2498218354585831  0.1510449259927995
  0.1919557841460673  0.7498218354585831  0.1510449259927995
  0.7181945503274392  0.7498203571894777  0.1347323259006288
  0.2181945503274392  0.2498203571894777  0.6347323259006288
  0.6919557841460673  0.2498218354585831  0.6510449259927995
  0.1919557841460673  0.7498218354585831  0.6510449259927995
  0.7181945503274392  0.7498203571894777  0.6347323259006288
  0.1578227497779778  0.3224389237996448  0.2433482613898335
  0.6508528635788693  0.3222654495811099  0.2676823771028012
  0.1508528635788693  0.8222654495811099  0.2676823771028012
  0.6578227497779778  0.8224389237996448  0.2433482613898335
  0.1578227497779778  0.3224389237996448  0.7433482613898335
  0.6508528635788693  0.3222654495811099  0.7676823771028012
  0.1508528635788693  0.8222654495811099  0.7676823771028012
  0.6578227497779778  0.8224389237996448  0.7433482613898335
  0.1578923805999111  0.1774627567083371  0.2435247591955303
  0.6509932866785562  0.1774893902419876  0.2677766542250950
  0.1509932866785562  0.6774893902419876  0.2677766542250950
  0.6578923805999111  0.6774627567083371  0.2435247591955303
  0.1578923805999111  0.1774627567083371  0.7435247591955303
  0.6509932866785562  0.1774893902419876  0.7677766542250950
  0.1509932866785562  0.6774893902419876  0.7677766542250950
  0.6578923805999111  0.6774627567083371  0.7435247591955303
  0.3514343557113833  0.3180602321123374  0.2549021042902524
  0.8448347990420260  0.3176883337021081  0.2466108776762255
  0.3448347990420260  0.8176883337021081  0.2466108776762255
  0.8514343557113833  0.8180602321123374  0.2549021042902524
  0.3514343557113833  0.3180602321123374  0.7549021042902524
  0.8448347990420260  0.3176883337021081  0.7466108776762255
  0.3448347990420260  0.8176883337021081  0.7466108776762255
  0.8514343557113833  0.8180602321123374  0.7549021042902524
  0.3514707013352734  0.1819269332686062  0.2550793912973717
  0.8449398991718056  0.1822828416740592  0.2467024083577556
  0.3449398991718056  0.6822828416740592  0.2467024083577556
  0.8514707013352734  0.6819269332686062  0.2550793912973717
  0.3514707013352734  0.1819269332686062  0.7550793912973717
  0.8449398991718056  0.1822828416740592  0.7467024083577556
  0.3449398991718056  0.6822828416740592  0.7467024083577556
  0.8514707013352734  0.6819269332686062  0.7550793912973717
  0.2969087114415103  0.2501417202938754  0.3558576520773471
  0.8094314345045177  0.2500453231450663  0.3553608372623174
  0.3094314345045177  0.7500453231450663  0.3553608372623174
  0.7969087114415103  0.7501417202938754  0.3558576520773471
  0.2969087114415103  0.2501417202938754  0.8558576520773471
  0.8094314345045177  0.2500453231450663  0.8553608372623174
  0.3094314345045177  0.7500453231450663  0.8553608372623174
  0.7969087114415103  0.7501417202938754  0.8558576520773471
  0.4724466637979745  0.5008989907548909  0.4888102350767838
  0.9724368881597485  0.4990805989749774  0.4888126589528241
  0.4724368881597485  0.9990805989749845  0.4888126589528241
  0.9724466637979745  0.0008989907548838  0.4888102350767838
  0.4724466637979745  0.5008989907548909  0.9888102350767838
  0.9724368881597485  0.4990805989749774  0.9888126589528241
  0.4724368881597485  0.9990805989749774  0.9888126589528241
  0.9724466637979745  0.0008989907548838  0.9888102350767838
  0.4547572227274230  0.5004751634867404  0.2375698606441361
  0.9547301259323788  0.4995069355378874  0.2375756232728534
  0.4547301259323788  0.9995069355378874  0.2375756232728534
  0.9547572227274230  0.0004751634867404  0.2375698606441361
  0.4547572227274230  0.5004751634867404  0.7375698606441361
  0.9547301259323788  0.4995069355378874  0.7375756232728534
  0.4547301259323788  0.9995069355378874  0.7375756232728534
  0.9547572227274230  0.0004751634867404  0.7375698606441361
  0.4671494612001226  0.2499755508495554  0.0085409275426684
  0.9321214179276680  0.2499824702415268  0.0151235079257503
  0.4321214179276680  0.7499824702415268  0.0151235079257503
  0.9671494612001226  0.7499755508495554  0.0085409275426684
  0.4671494612001226  0.2499755508495554  0.5085409275426684
  0.9321214179276680  0.2499824702415268  0.5151235079257503
  0.4321214179276680  0.7499824702415268  0.5151235079257503
  0.9671494612001226  0.7499755508495554  0.5085409275426684
  0.2161756661382910  0.4790932816678506  0.4612396987221885
  0.7161672107422845  0.5209015910496930  0.4612397049650312
  0.2161672107422845  0.0209015910496930  0.4612397049650312
  0.7161756661382910  0.9790932816678506  0.4612396987221814
  0.2161756661382910  0.4790932816678506  0.9612396987221814
  0.7161672107422845  0.5209015910496930  0.9612397049650312
  0.2161672107422845  0.0209015910496930  0.9612397049650312
  0.7161756661382910  0.9790932816678506  0.9612396987221814
 
  0.00000000E+00  0.00000000E+00  0.00000000E+00
  0.00000000E+00  0.00000000E+00  0.00000000E+00
  0.00000000E+00  0.00000000E+00  0.00000000E+00
  0.00000000E+00  0.00000000E+00  0.00000000E+00
  0.00000000E+00  0.00000000E+00  0.00000000E+00
  0.00000000E+00  0.00000000E+00  0.00000000E+00
  0.00000000E+00  0.00000000E+00  0.00000000E+00
  0.00000000E+00  0.00000000E+00  0.00000000E+00
  0.00000000E+00  0.00000000E+00  0.00000000E+00
  0.00000000E+00  0.00000000E+00  0.00000000E+00
  0.00000000E+00  0.00000000E+00  0.00000000E+00
  0.00000000E+00  0.00000000E+00  0.00000000E+00
  0.00000000E+00  0.00000000E+00  0.00000000E+00
  0.00000000E+00  0.00000000E+00  0.00000000E+00
  0.00000000E+00  0.00000000E+00  0.00000000E+00
  0.00000000E+00  0.00000000E+00  0.00000000E+00
  0.00000000E+00  0.00000000E+00  0.00000000E+00
  0.00000000E+00  0.00000000E+00  0.00000000E+00
  0.00000000E+00  0.00000000E+00  0.00000000E+00
  0.00000000E+00  0.00000000E+00  0.00000000E+00
  0.00000000E+00  0.00000000E+00  0.00000000E+00
  0.00000000E+00  0.00000000E+00  0.00000000E+00
  0.00000000E+00  0.00000000E+00  0.00000000E+00
  0.00000000E+00  0.00000000E+00  0.00000000E+00
  0.00000000E+00  0.00000000E+00  0.00000000E+00
  0.00000000E+00  0.00000000E+00  0.00000000E+00
  0.00000000E+00  0.00000000E+00  0.00000000E+00
  0.00000000E+00  0.00000000E+00  0.00000000E+00
  0.00000000E+00  0.00000000E+00  0.00000000E+00
  0.00000000E+00  0.00000000E+00  0.00000000E+00
  0.00000000E+00  0.00000000E+00  0.00000000E+00
  0.00000000E+00  0.00000000E+00  0.00000000E+00
  0.00000000E+00  0.00000000E+00  0.00000000E+00
  0.00000000E+00  0.00000000E+00  0.00000000E+00
  0.00000000E+00  0.00000000E+00  0.00000000E+00
  0.00000000E+00  0.00000000E+00  0.00000000E+00
  0.00000000E+00  0.00000000E+00  0.00000000E+00
  0.00000000E+00  0.00000000E+00  0.00000000E+00
  0.00000000E+00  0.00000000E+00  0.00000000E+00
  0.00000000E+00  0.00000000E+00  0.00000000E+00
  0.00000000E+00  0.00000000E+00  0.00000000E+00
  0.00000000E+00  0.00000000E+00  0.00000000E+00
  0.00000000E+00  0.00000000E+00  0.00000000E+00
  0.00000000E+00  0.00000000E+00  0.00000000E+00
  0.00000000E+00  0.00000000E+00  0.00000000E+00
  0.00000000E+00  0.00000000E+00  0.00000000E+00
  0.00000000E+00  0.00000000E+00  0.00000000E+00
  0.00000000E+00  0.00000000E+00  0.00000000E+00
  0.00000000E+00  0.00000000E+00  0.00000000E+00
  0.00000000E+00  0.00000000E+00  0.00000000E+00
  0.00000000E+00  0.00000000E+00  0.00000000E+00
  0.00000000E+00  0.00000000E+00  0.00000000E+00
  0.00000000E+00  0.00000000E+00  0.00000000E+00
  0.00000000E+00  0.00000000E+00  0.00000000E+00
  0.00000000E+00  0.00000000E+00  0.00000000E+00
  0.00000000E+00  0.00000000E+00  0.00000000E+00
  0.00000000E+00  0.00000000E+00  0.00000000E+00
  0.00000000E+00  0.00000000E+00  0.00000000E+00
  0.00000000E+00  0.00000000E+00  0.00000000E+00
  0.00000000E+00  0.00000000E+00  0.00000000E+00
  0.00000000E+00  0.00000000E+00  0.00000000E+00
  0.00000000E+00  0.00000000E+00  0.00000000E+00
  0.00000000E+00  0.00000000E+00  0.00000000E+00
  0.00000000E+00  0.00000000E+00  0.00000000E+00
  0.00000000E+00  0.00000000E+00  0.00000000E+00
  0.00000000E+00  0.00000000E+00  0.00000000E+00
  0.00000000E+00  0.00000000E+00  0.00000000E+00
  0.00000000E+00  0.00000000E+00  0.00000000E+00
  0.00000000E+00  0.00000000E+00  0.00000000E+00
  0.00000000E+00  0.00000000E+00  0.00000000E+00
  0.00000000E+00  0.00000000E+00  0.00000000E+00
  0.00000000E+00  0.00000000E+00  0.00000000E+00
  0.00000000E+00  0.00000000E+00  0.00000000E+00
  0.00000000E+00  0.00000000E+00  0.00000000E+00
  0.00000000E+00  0.00000000E+00  0.00000000E+00
  0.00000000E+00  0.00000000E+00  0.00000000E+00
  0.00000000E+00  0.00000000E+00  0.00000000E+00
  0.00000000E+00  0.00000000E+00  0.00000000E+00
  0.00000000E+00  0.00000000E+00  0.00000000E+00
  0.00000000E+00  0.00000000E+00  0.00000000E+00
  0.00000000E+00  0.00000000E+00  0.00000000E+00
  0.00000000E+00  0.00000000E+00  0.00000000E+00
  0.00000000E+00  0.00000000E+00  0.00000000E+00
  0.00000000E+00  0.00000000E+00  0.00000000E+00
  0.00000000E+00  0.00000000E+00  0.00000000E+00
  0.00000000E+00  0.00000000E+00  0.00000000E+00
  0.00000000E+00  0.00000000E+00  0.00000000E+00
  0.00000000E+00  0.00000000E+00  0.00000000E+00
  0.00000000E+00  0.00000000E+00  0.00000000E+00
  0.00000000E+00  0.00000000E+00  0.00000000E+00
  0.00000000E+00  0.00000000E+00  0.00000000E+00
  0.00000000E+00  0.00000000E+00  0.00000000E+00
  0.00000000E+00  0.00000000E+00  0.00000000E+00
  0.00000000E+00  0.00000000E+00  0.00000000E+00
  0.00000000E+00  0.00000000E+00  0.00000000E+00
  0.00000000E+00  0.00000000E+00  0.00000000E+00
