Automatically generated mesh
      603
Reciprocal lattice
    0.00000000000000    0.00000000000000    0.00000000000000             1
    0.16666666666667    0.00000000000000    0.00000000000000             8
    0.33333333333333    0.00000000000000    0.00000000000000             8
    0.50000000000000    0.00000000000000    0.00000000000000             4
    0.16666666666667    0.16666666666667    0.00000000000000             6
    0.33333333333333    0.16666666666667    0.00000000000000            24
    0.50000000000000    0.16666666666667    0.00000000000000            24
   -0.33333333333333    0.16666666666667    0.00000000000000            24
   -0.16666666666667    0.16666666666667    0.00000000000000            12
    0.33333333333333    0.33333333333333    0.00000000000000             6
    0.50000000000000    0.33333333333333    0.00000000000000            24
   -0.33333333333333    0.33333333333333    0.00000000000000            12
    0.50000000000000    0.50000000000000    0.00000000000000             3
    0.50000000000000    0.33333333333333    0.16666666666667            24
   -0.33333333333333    0.33333333333333    0.16666666666667            24
   -0.33333333333333    0.50000000000000    0.16666666666667            12
0.00000000  0.00000000  0.00000000   0.00
0.00500000  0.00000000  0.00500000   0.00
0.01000000  0.00000000  0.01000000   0.00
0.01500000  0.00000000  0.01500000   0.00
0.02000000  0.00000000  0.02000000   0.00
0.02500000  0.00000000  0.02500000   0.00
0.03000000  0.00000000  0.03000000   0.00
0.03500000  0.00000000  0.03500000   0.00
0.04000000  0.00000000  0.04000000   0.00
0.04500000  0.00000000  0.04500000   0.00
0.05000000  0.00000000  0.05000000   0.00
0.05500000  0.00000000  0.05500000   0.00
0.06000000  0.00000000  0.06000000   0.00
0.06500000  0.00000000  0.06500000   0.00
0.07000000  0.00000000  0.07000000   0.00
0.07500000  0.00000000  0.07500000   0.00
0.08000000  0.00000000  0.08000000   0.00
0.08500000  0.00000000  0.08500000   0.00
0.09000000  0.00000000  0.09000000   0.00
0.09500000  0.00000000  0.09500000   0.00
0.09999999  0.00000000  0.09999999   0.00
0.10500000  0.00000000  0.10500000   0.00
0.11000000  0.00000000  0.11000000   0.00
0.11499999  0.00000000  0.11499999   0.00
0.12000000  0.00000000  0.12000000   0.00
0.12500000  0.00000000  0.12500000   0.00
0.13000000  0.00000000  0.13000000   0.00
0.13499999  0.00000000  0.13499999   0.00
0.14000000  0.00000000  0.14000000   0.00
0.14500000  0.00000000  0.14500000   0.00
0.14999999  0.00000000  0.14999999   0.00
0.15500000  0.00000000  0.15500000   0.00
0.16000000  0.00000000  0.16000000   0.00
0.16499999  0.00000000  0.16499999   0.00
0.17000000  0.00000000  0.17000000   0.00
0.17500000  0.00000000  0.17500000   0.00
0.18000001  0.00000000  0.18000001   0.00
0.18499999  0.00000000  0.18499999   0.00
0.19000000  0.00000000  0.19000000   0.00
0.19500001  0.00000000  0.19500001   0.00
0.19999999  0.00000000  0.19999999   0.00
0.20500000  0.00000000  0.20500000   0.00
0.21000001  0.00000000  0.21000001   0.00
0.21499999  0.00000000  0.21499999   0.00
0.22000000  0.00000000  0.22000000   0.00
0.22500001  0.00000000  0.22500001   0.00
0.22999999  0.00000000  0.22999999   0.00
0.23500000  0.00000000  0.23500000   0.00
0.24000001  0.00000000  0.24000001   0.00
0.24499999  0.00000000  0.24499999   0.00
0.25000000  0.00000000  0.25000000   0.00
0.25500000  0.00000000  0.25500000   0.00
0.25999999  0.00000000  0.25999999   0.00
0.26499999  0.00000000  0.26499999   0.00
0.26999998  0.00000000  0.26999998   0.00
0.27500001  0.00000000  0.27500001   0.00
0.28000000  0.00000000  0.28000000   0.00
0.28500000  0.00000000  0.28500000   0.00
0.28999999  0.00000000  0.28999999   0.00
0.29499999  0.00000000  0.29499999   0.00
0.29999998  0.00000000  0.29999998   0.00
0.30500001  0.00000000  0.30500001   0.00
0.31000000  0.00000000  0.31000000   0.00
0.31500000  0.00000000  0.31500000   0.00
0.31999999  0.00000000  0.31999999   0.00
0.32499999  0.00000000  0.32499999   0.00
0.32999998  0.00000000  0.32999998   0.00
0.33500001  0.00000000  0.33500001   0.00
0.34000000  0.00000000  0.34000000   0.00
0.34500000  0.00000000  0.34500000   0.00
0.34999999  0.00000000  0.34999999   0.00
0.35499999  0.00000000  0.35499999   0.00
0.36000001  0.00000000  0.36000001   0.00
0.36499998  0.00000000  0.36499998   0.00
0.36999997  0.00000000  0.36999997   0.00
0.37500000  0.00000000  0.37500000   0.00
0.38000000  0.00000000  0.38000000   0.00
0.38499999  0.00000000  0.38499999   0.00
0.39000002  0.00000000  0.39000002   0.00
0.39499998  0.00000000  0.39499998   0.00
0.39999998  0.00000000  0.39999998   0.00
0.40500000  0.00000000  0.40500000   0.00
0.41000000  0.00000000  0.41000000   0.00
0.41499999  0.00000000  0.41499999   0.00
0.42000002  0.00000000  0.42000002   0.00
0.42499998  0.00000000  0.42499998   0.00
0.42999998  0.00000000  0.42999998   0.00
0.43500000  0.00000000  0.43500000   0.00
0.44000000  0.00000000  0.44000000   0.00
0.44499999  0.00000000  0.44499999   0.00
0.45000002  0.00000000  0.45000002   0.00
0.45499998  0.00000000  0.45499998   0.00
0.45999998  0.00000000  0.45999998   0.00
0.46500000  0.00000000  0.46500000   0.00
0.47000000  0.00000000  0.47000000   0.00
0.47499999  0.00000000  0.47499999   0.00
0.48000002  0.00000000  0.48000002   0.00
0.48499998  0.00000000  0.48499998   0.00
0.48999998  0.00000000  0.48999998   0.00
0.49500000  0.00000000  0.49500000   0.00
0.50000000  0.00000000  0.50000000   0.00
0.50000000  0.00500000  0.50500000   0.00
0.50000000  0.01000000  0.50999999   0.00
0.50000000  0.01500000  0.51499999   0.00
0.50000000  0.02000000  0.51999998   0.00
0.50000000  0.02500000  0.52499998   0.00
0.50000000  0.03000000  0.52999997   0.00
0.50000000  0.03500000  0.53500003   0.00
0.50000000  0.04000000  0.54000002   0.00
0.50000000  0.04500000  0.54500002   0.00
0.50000000  0.05000000  0.55000001   0.00
0.50000000  0.05500000  0.55500001   0.00
0.50000000  0.06000000  0.56000000   0.00
0.50000000  0.06500000  0.56500000   0.00
0.50000000  0.07000000  0.56999999   0.00
0.50000000  0.07500000  0.57499999   0.00
0.50000000  0.08000000  0.57999998   0.00
0.50000000  0.08500000  0.58499998   0.00
0.50000000  0.09000000  0.59000003   0.00
0.50000000  0.09500000  0.59500003   0.00
0.50000000  0.09999999  0.60000002   0.00
0.50000000  0.10500000  0.60500002   0.00
0.50000000  0.11000000  0.61000001   0.00
0.50000000  0.11499999  0.61500001   0.00
0.50000000  0.12000000  0.62000000   0.00
0.50000000  0.12500000  0.62500000   0.00
0.50000000  0.13000000  0.63000000   0.00
0.50000000  0.13499999  0.63499999   0.00
0.50000000  0.14000000  0.63999999   0.00
0.50000000  0.14500000  0.64499998   0.00
0.50000000  0.14999999  0.64999998   0.00
0.50000000  0.15500000  0.65499997   0.00
0.50000000  0.16000000  0.65999997   0.00
0.50000000  0.16499999  0.66499996   0.00
0.50000000  0.17000000  0.67000002   0.00
0.50000000  0.17500000  0.67500001   0.00
0.50000000  0.18000001  0.68000001   0.00
0.50000000  0.18499999  0.68500000   0.00
0.50000000  0.19000000  0.69000000   0.00
0.50000000  0.19500001  0.69499999   0.00
0.50000000  0.19999999  0.69999999   0.00
0.50000000  0.20500000  0.70499998   0.00
0.50000000  0.21000001  0.71000004   0.00
0.50000000  0.21499999  0.71499997   0.00
0.50000000  0.22000000  0.72000003   0.00
0.50000000  0.22500001  0.72500002   0.00
0.50000000  0.22999999  0.73000002   0.00
0.50000000  0.23500000  0.73500001   0.00
0.50000000  0.24000001  0.74000001   0.00
0.50000000  0.24499999  0.74500000   0.00
0.50000000  0.25000000  0.75000000   0.00
0.49500000  0.25500000  0.75000000   0.00
0.49000001  0.25999999  0.75000000   0.00
0.48500001  0.26499999  0.75000000   0.00
0.47999999  0.27000001  0.75000000   0.00
0.47499999  0.27500001  0.75000000   0.00
0.47000000  0.28000000  0.75000000   0.00
0.46500000  0.28500000  0.75000000   0.00
0.46000001  0.28999999  0.75000000   0.00
0.45499998  0.29500002  0.75000000   0.00
0.44999999  0.30000001  0.75000000   0.00
0.44499999  0.30500001  0.75000000   0.00
0.44000000  0.31000000  0.75000000   0.00
0.43500000  0.31500000  0.75000000   0.00
0.43000001  0.31999999  0.75000000   0.00
0.42500001  0.32499999  0.75000000   0.00
0.42000002  0.32999998  0.75000000   0.00
0.41499999  0.33500001  0.75000000   0.00
0.41000000  0.34000000  0.75000000   0.00
0.40500000  0.34500000  0.75000000   0.00
0.40000001  0.34999999  0.75000000   0.00
0.39499998  0.35500002  0.75000000   0.00
0.38999999  0.36000001  0.75000000   0.00
0.38499999  0.36500001  0.75000000   0.00
0.38000000  0.37000000  0.75000000   0.00
0.37500000  0.37500000  0.75000000   0.00
0.37209302  0.37209302  0.74418604   0.00
0.36918604  0.36918604  0.73837209   0.00
0.36627907  0.36627907  0.73255813   0.00
0.36337209  0.36337209  0.72674417   0.00
0.36046511  0.36046511  0.72093022   0.00
0.35755813  0.35755813  0.71511626   0.00
0.35465115  0.35465115  0.70930231   0.00
0.35174417  0.35174417  0.70348835   0.00
0.34883720  0.34883720  0.69767439   0.00
0.34593022  0.34593022  0.69186044   0.00
0.34302324  0.34302324  0.68604648   0.00
0.34011626  0.34011626  0.68023252   0.00
0.33720928  0.33720928  0.67441857   0.00
0.33430234  0.33430234  0.66860467   0.00
0.33139536  0.33139536  0.66279072   0.00
0.32848838  0.32848838  0.65697676   0.00
0.32558140  0.32558140  0.65116280   0.00
0.32267442  0.32267442  0.64534885   0.00
0.31976745  0.31976745  0.63953489   0.00
0.31686047  0.31686047  0.63372093   0.00
0.31395349  0.31395349  0.62790698   0.00
0.31104651  0.31104651  0.62209302   0.00
0.30813953  0.30813953  0.61627907   0.00
0.30523255  0.30523255  0.61046511   0.00
0.30232558  0.30232558  0.60465115   0.00
0.29941860  0.29941860  0.59883720   0.00
0.29651162  0.29651162  0.59302324   0.00
0.29360464  0.29360464  0.58720928   0.00
0.29069766  0.29069766  0.58139533   0.00
0.28779069  0.28779069  0.57558137   0.00
0.28488371  0.28488371  0.56976742   0.00
0.28197676  0.28197676  0.56395352   0.00
0.27906978  0.27906978  0.55813956   0.00
0.27616280  0.27616280  0.55232561   0.00
0.27325583  0.27325583  0.54651165   0.00
0.27034885  0.27034885  0.54069769   0.00
0.26744187  0.26744187  0.53488374   0.00
0.26453489  0.26453489  0.52906978   0.00
0.26162791  0.26162791  0.52325583   0.00
0.25872093  0.25872093  0.51744187   0.00
0.25581396  0.25581396  0.51162791   0.00
0.25290698  0.25290698  0.50581396   0.00
0.25000000  0.25000000  0.50000000   0.00
0.24709302  0.24709302  0.49418604   0.00
0.24418604  0.24418604  0.48837209   0.00
0.24127907  0.24127907  0.48255813   0.00
0.23837209  0.23837209  0.47674417   0.00
0.23546511  0.23546511  0.47093022   0.00
0.23255813  0.23255813  0.46511626   0.00
0.22965115  0.22965115  0.45930231   0.00
0.22674417  0.22674417  0.45348835   0.00
0.22383720  0.22383720  0.44767439   0.00
0.22093023  0.22093023  0.44186047   0.00
0.21802326  0.21802326  0.43604651   0.00
0.21511628  0.21511628  0.43023255   0.00
0.21220930  0.21220930  0.42441860   0.00
0.20930232  0.20930232  0.41860464   0.00
0.20639534  0.20639534  0.41279069   0.00
0.20348836  0.20348836  0.40697673   0.00
0.20058139  0.20058139  0.40116277   0.00
0.19767441  0.19767441  0.39534882   0.00
0.19476743  0.19476743  0.38953486   0.00
0.19186047  0.19186047  0.38372093   0.00
0.18895349  0.18895349  0.37790698   0.00
0.18604651  0.18604651  0.37209302   0.00
0.18313953  0.18313953  0.36627907   0.00
0.18023255  0.18023255  0.36046511   0.00
0.17732558  0.17732558  0.35465115   0.00
0.17441860  0.17441860  0.34883720   0.00
0.17151162  0.17151162  0.34302324   0.00
0.16860464  0.16860464  0.33720928   0.00
0.16569768  0.16569768  0.33139536   0.00
0.16279070  0.16279070  0.32558140   0.00
0.15988372  0.15988372  0.31976745   0.00
0.15697674  0.15697674  0.31395349   0.00
0.15406977  0.15406977  0.30813953   0.00
0.15116279  0.15116279  0.30232558   0.00
0.14825581  0.14825581  0.29651162   0.00
0.14534883  0.14534883  0.29069766   0.00
0.14244185  0.14244185  0.28488371   0.00
0.13953488  0.13953488  0.27906975   0.00
0.13662791  0.13662791  0.27325583   0.00
0.13372093  0.13372093  0.26744187   0.00
0.13081396  0.13081396  0.26162791   0.00
0.12790698  0.12790698  0.25581396   0.00
0.12500000  0.12500000  0.25000000   0.00
0.12209302  0.12209302  0.24418604   0.00
0.11918604  0.11918604  0.23837209   0.00
0.11627907  0.11627907  0.23255813   0.00
0.11337209  0.11337209  0.22674417   0.00
0.11046511  0.11046511  0.22093022   0.00
0.10755813  0.10755813  0.21511626   0.00
0.10465115  0.10465115  0.20930231   0.00
0.10174417  0.10174417  0.20348835   0.00
0.09883720  0.09883720  0.19767439   0.00
0.09593022  0.09593022  0.19186044   0.00
0.09302324  0.09302324  0.18604648   0.00
0.09011626  0.09011626  0.18023252   0.00
0.08720928  0.08720928  0.17441857   0.00
0.08430231  0.08430231  0.16860461   0.00
0.08139533  0.08139533  0.16279066   0.00
0.07848835  0.07848835  0.15697670   0.00
0.07558137  0.07558137  0.15116274   0.00
0.07267439  0.07267439  0.14534879   0.00
0.06976742  0.06976742  0.13953483   0.00
0.06686047  0.06686047  0.13372093   0.00
0.06395349  0.06395349  0.12790698   0.00
0.06104651  0.06104651  0.12209302   0.00
0.05813953  0.05813953  0.11627907   0.00
0.05523255  0.05523255  0.11046511   0.00
0.05232558  0.05232558  0.10465115   0.00
0.04941860  0.04941860  0.09883720   0.00
0.04651162  0.04651162  0.09302324   0.00
0.04360464  0.04360464  0.08720928   0.00
0.04069766  0.04069766  0.08139533   0.00
0.03779069  0.03779069  0.07558137   0.00
0.03488371  0.03488371  0.06976742   0.00
0.03197673  0.03197673  0.06395346   0.00
0.02906975  0.02906975  0.05813950   0.00
0.02616277  0.02616277  0.05232555   0.00
0.02325580  0.02325580  0.04651159   0.00
0.02034882  0.02034882  0.04069763   0.00
0.01744184  0.01744184  0.03488368   0.00
0.01453486  0.01453486  0.02906972   0.00
0.01162791  0.01162791  0.02325583   0.00
0.00872093  0.00872093  0.01744187   0.00
0.00581396  0.00581396  0.01162791   0.00
0.00290698  0.00290698  0.00581396   0.00
0.00000000  0.00000000  0.00000000   0.00
0.00409836  0.00409836  0.00409836   0.00
0.00819672  0.00819672  0.00819672   0.00
0.01229508  0.01229508  0.01229508   0.00
0.01639344  0.01639344  0.01639344   0.00
0.02049180  0.02049180  0.02049180   0.00
0.02459016  0.02459016  0.02459016   0.00
0.02868852  0.02868852  0.02868852   0.00
0.03278688  0.03278688  0.03278688   0.00
0.03688525  0.03688525  0.03688525   0.00
0.04098361  0.04098361  0.04098361   0.00
0.04508197  0.04508197  0.04508197   0.00
0.04918033  0.04918033  0.04918033   0.00
0.05327869  0.05327869  0.05327869   0.00
0.05737704  0.05737704  0.05737704   0.00
0.06147541  0.06147541  0.06147541   0.00
0.06557377  0.06557377  0.06557377   0.00
0.06967213  0.06967213  0.06967213   0.00
0.07377049  0.07377049  0.07377049   0.00
0.07786886  0.07786886  0.07786886   0.00
0.08196721  0.08196721  0.08196721   0.00
0.08606557  0.08606557  0.08606557   0.00
0.09016393  0.09016393  0.09016393   0.00
0.09426229  0.09426229  0.09426229   0.00
0.09836065  0.09836065  0.09836065   0.00
0.10245901  0.10245901  0.10245901   0.00
0.10655738  0.10655738  0.10655738   0.00
0.11065574  0.11065574  0.11065574   0.00
0.11475409  0.11475409  0.11475409   0.00
0.11885245  0.11885245  0.11885245   0.00
0.12295081  0.12295081  0.12295081   0.00
0.12704918  0.12704918  0.12704918   0.00
0.13114753  0.13114753  0.13114753   0.00
0.13524590  0.13524590  0.13524590   0.00
0.13934426  0.13934426  0.13934426   0.00
0.14344262  0.14344262  0.14344262   0.00
0.14754099  0.14754099  0.14754099   0.00
0.15163934  0.15163934  0.15163934   0.00
0.15573771  0.15573771  0.15573771   0.00
0.15983605  0.15983605  0.15983605   0.00
0.16393442  0.16393442  0.16393442   0.00
0.16803278  0.16803278  0.16803278   0.00
0.17213114  0.17213114  0.17213114   0.00
0.17622951  0.17622951  0.17622951   0.00
0.18032786  0.18032786  0.18032786   0.00
0.18442623  0.18442623  0.18442623   0.00
0.18852459  0.18852459  0.18852459   0.00
0.19262296  0.19262296  0.19262296   0.00
0.19672130  0.19672130  0.19672130   0.00
0.20081966  0.20081966  0.20081966   0.00
0.20491803  0.20491803  0.20491803   0.00
0.20901638  0.20901638  0.20901638   0.00
0.21311475  0.21311475  0.21311475   0.00
0.21721311  0.21721311  0.21721311   0.00
0.22131148  0.22131148  0.22131148   0.00
0.22540984  0.22540984  0.22540984   0.00
0.22950818  0.22950818  0.22950818   0.00
0.23360655  0.23360655  0.23360655   0.00
0.23770490  0.23770490  0.23770490   0.00
0.24180327  0.24180327  0.24180327   0.00
0.24590163  0.24590163  0.24590163   0.00
0.25000000  0.25000000  0.25000000   0.00
0.25409836  0.25409836  0.25409836   0.00
0.25819671  0.25819671  0.25819671   0.00
0.26229507  0.26229507  0.26229507   0.00
0.26639342  0.26639342  0.26639342   0.00
0.27049181  0.27049181  0.27049181   0.00
0.27459016  0.27459016  0.27459016   0.00
0.27868852  0.27868852  0.27868852   0.00
0.28278688  0.28278688  0.28278688   0.00
0.28688523  0.28688523  0.28688523   0.00
0.29098362  0.29098362  0.29098362   0.00
0.29508197  0.29508197  0.29508197   0.00
0.29918033  0.29918033  0.29918033   0.00
0.30327868  0.30327868  0.30327868   0.00
0.30737704  0.30737704  0.30737704   0.00
0.31147543  0.31147543  0.31147543   0.00
0.31557378  0.31557378  0.31557378   0.00
0.31967211  0.31967211  0.31967211   0.00
0.32377046  0.32377046  0.32377046   0.00
0.32786885  0.32786885  0.32786885   0.00
0.33196720  0.33196720  0.33196720   0.00
0.33606556  0.33606556  0.33606556   0.00
0.34016392  0.34016392  0.34016392   0.00
0.34426227  0.34426227  0.34426227   0.00
0.34836066  0.34836066  0.34836066   0.00
0.35245901  0.35245901  0.35245901   0.00
0.35655737  0.35655737  0.35655737   0.00
0.36065573  0.36065573  0.36065573   0.00
0.36475408  0.36475408  0.36475408   0.00
0.36885247  0.36885247  0.36885247   0.00
0.37295082  0.37295082  0.37295082   0.00
0.37704918  0.37704918  0.37704918   0.00
0.38114753  0.38114753  0.38114753   0.00
0.38524592  0.38524592  0.38524592   0.00
0.38934427  0.38934427  0.38934427   0.00
0.39344260  0.39344260  0.39344260   0.00
0.39754096  0.39754096  0.39754096   0.00
0.40163931  0.40163931  0.40163931   0.00
0.40573770  0.40573770  0.40573770   0.00
0.40983605  0.40983605  0.40983605   0.00
0.41393441  0.41393441  0.41393441   0.00
0.41803277  0.41803277  0.41803277   0.00
0.42213115  0.42213115  0.42213115   0.00
0.42622951  0.42622951  0.42622951   0.00
0.43032786  0.43032786  0.43032786   0.00
0.43442622  0.43442622  0.43442622   0.00
0.43852457  0.43852457  0.43852457   0.00
0.44262296  0.44262296  0.44262296   0.00
0.44672132  0.44672132  0.44672132   0.00
0.45081967  0.45081967  0.45081967   0.00
0.45491803  0.45491803  0.45491803   0.00
0.45901635  0.45901635  0.45901635   0.00
0.46311477  0.46311477  0.46311477   0.00
0.46721309  0.46721309  0.46721309   0.00
0.47131145  0.47131145  0.47131145   0.00
0.47540981  0.47540981  0.47540981   0.00
0.47950819  0.47950819  0.47950819   0.00
0.48360655  0.48360655  0.48360655   0.00
0.48770490  0.48770490  0.48770490   0.00
0.49180326  0.49180326  0.49180326   0.00
0.49590161  0.49590161  0.49590161   0.00
0.50000000  0.50000000  0.50000000   0.00
0.50290698  0.49418604  0.50290698   0.00
0.50581396  0.48837209  0.50581396   0.00
0.50872093  0.48255813  0.50872093   0.00
0.51162791  0.47674417  0.51162791   0.00
0.51453489  0.47093022  0.51453489   0.00
0.51744187  0.46511629  0.51744187   0.00
0.52034885  0.45930234  0.52034885   0.00
0.52325583  0.45348838  0.52325583   0.00
0.52616280  0.44767442  0.52616280   0.00
0.52906978  0.44186047  0.52906978   0.00
0.53197676  0.43604651  0.53197676   0.00
0.53488374  0.43023255  0.53488374   0.00
0.53779072  0.42441860  0.53779072   0.00
0.54069769  0.41860464  0.54069769   0.00
0.54360467  0.41279072  0.54360467   0.00
0.54651165  0.40697676  0.54651165   0.00
0.54941863  0.40116280  0.54941863   0.00
0.55232561  0.39534885  0.55232561   0.00
0.55523258  0.38953489  0.55523258   0.00
0.55813956  0.38372093  0.55813956   0.00
0.56104648  0.37790698  0.56104648   0.00
0.56395352  0.37209302  0.56395352   0.00
0.56686044  0.36627907  0.56686044   0.00
0.56976742  0.36046511  0.56976742   0.00
0.57267439  0.35465115  0.57267439   0.00
0.57558137  0.34883720  0.57558137   0.00
0.57848835  0.34302324  0.57848835   0.00
0.58139533  0.33720928  0.58139533   0.00
0.58430231  0.33139536  0.58430231   0.00
0.58720928  0.32558140  0.58720928   0.00
0.59011626  0.31976745  0.59011626   0.00
0.59302324  0.31395349  0.59302324   0.00
0.59593022  0.30813956  0.59593022   0.00
0.59883720  0.30232561  0.59883720   0.00
0.60174417  0.29651165  0.60174417   0.00
0.60465115  0.29069766  0.60465115   0.00
0.60755813  0.28488374  0.60755813   0.00
0.61046511  0.27906978  0.61046511   0.00
0.61337209  0.27325583  0.61337209   0.00
0.61627907  0.26744187  0.61627907   0.00
0.61918604  0.26162791  0.61918604   0.00
0.62209302  0.25581396  0.62209302   0.00
0.62500000  0.25000000  0.62500000   0.00
0.62000000  0.25000000  0.63000000   0.00
0.61500001  0.25000000  0.63499999   0.00
0.61000001  0.25000000  0.63999999   0.00
0.60500002  0.25000000  0.64499998   0.00
0.60000002  0.25000000  0.64999998   0.00
0.59500003  0.25000000  0.65499997   0.00
0.58999997  0.25000000  0.66000003   0.00
0.58499998  0.25000000  0.66500002   0.00
0.57999998  0.25000000  0.67000002   0.00
0.57499999  0.25000000  0.67500001   0.00
0.56999999  0.25000000  0.68000001   0.00
0.56500000  0.25000000  0.68500000   0.00
0.56000000  0.25000000  0.69000000   0.00
0.55500001  0.25000000  0.69499999   0.00
0.55000001  0.25000000  0.69999999   0.00
0.54500002  0.25000000  0.70499998   0.00
0.54000002  0.25000000  0.70999998   0.00
0.53499997  0.25000000  0.71500003   0.00
0.52999997  0.25000000  0.72000003   0.00
0.52499998  0.25000000  0.72500002   0.00
0.51999998  0.25000000  0.73000002   0.00
0.51499999  0.25000000  0.73500001   0.00
0.50999999  0.25000000  0.74000001   0.00
0.50500000  0.25000000  0.74500000   0.00
0.50000000  0.25000000  0.75000000   0.00
0.50000000  0.25500000  0.74500000   0.00
0.50000000  0.25999999  0.74000001   0.00
0.50000000  0.26499999  0.73500001   0.00
0.50000000  0.27000001  0.73000002   0.00
0.50000000  0.27500001  0.72500002   0.00
0.50000000  0.28000000  0.72000003   0.00
0.50000000  0.28500000  0.71499997   0.00
0.50000000  0.28999999  0.70999998   0.00
0.50000000  0.29500002  0.70499998   0.00
0.50000000  0.30000001  0.69999999   0.00
0.50000000  0.30500001  0.69499999   0.00
0.50000000  0.31000000  0.69000000   0.00
0.50000000  0.31500000  0.68500000   0.00
0.50000000  0.31999999  0.68000001   0.00
0.50000000  0.32499999  0.67500001   0.00
0.50000000  0.32999998  0.67000002   0.00
0.50000000  0.33500001  0.66500002   0.00
0.50000000  0.34000000  0.65999997   0.00
0.50000000  0.34500000  0.65499997   0.00
0.50000000  0.34999999  0.64999998   0.00
0.50000000  0.35500002  0.64499998   0.00
0.50000000  0.36000001  0.63999999   0.00
0.50000000  0.36500001  0.63499999   0.00
0.50000000  0.37000000  0.63000000   0.00
0.50000000  0.37500000  0.62500000   0.00
0.50000000  0.38000000  0.62000000   0.00
0.50000000  0.38499999  0.61500001   0.00
0.50000000  0.38999999  0.61000001   0.00
0.50000000  0.39499998  0.60500002   0.00
0.50000000  0.39999998  0.60000002   0.00
0.50000000  0.40500000  0.59500003   0.00
0.50000000  0.41000000  0.59000003   0.00
0.50000000  0.41499999  0.58500004   0.00
0.50000000  0.42000002  0.57999998   0.00
0.50000000  0.42500001  0.57499999   0.00
0.50000000  0.43000001  0.56999999   0.00
0.50000000  0.43500000  0.56500000   0.00
0.50000000  0.44000000  0.56000000   0.00
0.50000000  0.44499999  0.55500001   0.00
0.50000000  0.44999999  0.55000001   0.00
0.50000000  0.45499998  0.54500002   0.00
0.50000000  0.46000001  0.53999996   0.00
0.50000000  0.46499997  0.53500003   0.00
0.50000000  0.47000000  0.52999997   0.00
0.50000000  0.47500002  0.52499998   0.00
0.50000000  0.47999999  0.51999998   0.00
0.50000000  0.48500001  0.51499999   0.00
0.50000000  0.49000001  0.50999999   0.00
0.50000000  0.49500000  0.50500000   0.00
0.50000000  0.50000000  0.50000000   0.00
0.49709302  0.49709302  0.50581396   0.00
0.49418604  0.49418604  0.51162791   0.00
0.49127907  0.49127907  0.51744187   0.00
0.48837209  0.48837209  0.52325583   0.00
0.48546511  0.48546511  0.52906978   0.00
0.48255813  0.48255813  0.53488374   0.00
0.47965115  0.47965115  0.54069769   0.00
0.47674417  0.47674417  0.54651165   0.00
0.47383720  0.47383720  0.55232561   0.00
0.47093022  0.47093022  0.55813956   0.00
0.46802324  0.46802324  0.56395352   0.00
0.46511629  0.46511629  0.56976742   0.00
0.46220931  0.46220931  0.57558137   0.00
0.45930234  0.45930234  0.58139533   0.00
0.45639536  0.45639536  0.58720928   0.00
0.45348838  0.45348838  0.59302324   0.00
0.45058140  0.45058140  0.59883720   0.00
0.44767442  0.44767442  0.60465115   0.00
0.44476745  0.44476745  0.61046511   0.00
0.44186047  0.44186047  0.61627907   0.00
0.43895349  0.43895349  0.62209302   0.00
0.43604651  0.43604651  0.62790698   0.00
0.43313953  0.43313953  0.63372093   0.00
0.43023255  0.43023255  0.63953489   0.00
0.42732558  0.42732558  0.64534885   0.00
0.42441860  0.42441860  0.65116280   0.00
0.42151162  0.42151162  0.65697676   0.00
0.41860464  0.41860464  0.66279072   0.00
0.41569769  0.41569769  0.66860461   0.00
0.41279072  0.41279072  0.67441857   0.00
0.40988374  0.40988374  0.68023252   0.00
0.40697676  0.40697676  0.68604648   0.00
0.40406978  0.40406978  0.69186044   0.00
0.40116280  0.40116280  0.69767439   0.00
0.39825583  0.39825583  0.70348835   0.00
0.39534885  0.39534885  0.70930231   0.00
0.39244187  0.39244187  0.71511626   0.00
0.38953489  0.38953489  0.72093022   0.00
0.38662791  0.38662791  0.72674417   0.00
0.38372093  0.38372093  0.73255813   0.00
0.38081396  0.38081396  0.73837209   0.00
0.37790698  0.37790698  0.74418604   0.00
0.37500000  0.37500000  0.75000000   0.00
