C N H Pb I                              
   1.00000000000000     
    12.5768374277686394    0.0019159116494978    0.1381987933539664
     0.0011956322447466   12.4575380825249127   -0.0007464134870236
     0.1394107043392118    0.0000890449825412   12.7474206252920563
   C    N    H    Pb   I 
     8     8    48     8    24
Direct
  0.1975302636757021  0.2498660473629073  0.2286730287267034
  0.6964580011495940  0.2499505028657012  0.2291576799543904
  0.1964580011495940  0.7499505028657012  0.2291576799543904
  0.6975302636757021  0.7498660473629073  0.2286730287267034
  0.1964580011495940  0.2499505028657012  0.7291576799543904
  0.6975302636757021  0.2498660473629073  0.7286730287267034
  0.1975302636757021  0.7498660473629073  0.7286730287267034
  0.6964580011495940  0.7499505028657012  0.7291576799543904
  0.3094943709563012  0.2499765139264980  0.2637009283426011
  0.7995800668771338  0.2500307673066686  0.2840676646060061
  0.2995800668771338  0.7500307673066686  0.2840676646060061
  0.8094943709563012  0.7499765139264980  0.2637009283426011
  0.2995800668771338  0.2500307673066686  0.7840676646060061
  0.8094943709563012  0.2499765139264980  0.7637009283426011
  0.3094943709563012  0.7499765139264980  0.7637009283426011
  0.7995800668771338  0.7500307673066686  0.7840676646060061
  0.1973850403856687  0.2497790808548075  0.1420615388883135
  0.7127652940878377  0.2498631117932533  0.1437157130051148
  0.2127652940878377  0.7498631117932533  0.1437157130051148
  0.6973850403856687  0.7497790808548075  0.1420615388883135
  0.2127652940878377  0.2498631117932533  0.6437157130051148
  0.6973850403856687  0.2497790808548075  0.6420615388883135
  0.1973850403856687  0.7497790808548075  0.6420615388883135
  0.7127652940878377  0.7498631117932533  0.6437157130051148
  0.1571424668547579  0.3222492000330917  0.2590140020773362
  0.6515331465020893  0.3224551733476630  0.2520166364152985
  0.1515331465020893  0.8224551733476630  0.2520166364152985
  0.6571424668547579  0.8222492000330917  0.2590140020773362
  0.1515331465020893  0.3224551733476630  0.7520166364153056
  0.6571424668547579  0.3222492000330917  0.7590140020773291
  0.1571424668547579  0.8222492000330917  0.7590140020773291
  0.6515331465020893  0.8224551733476630  0.7520166364153056
  0.1572830911020517  0.1774803621031751  0.2591409203909691
  0.6516025761764155  0.1774717848471496  0.2521604930296562
  0.1516025761764155  0.6774717848471496  0.2521604930296562
  0.6572830911020517  0.6774803621031751  0.2591409203909691
  0.1516025761764155  0.1774717848471496  0.7521604930296562
  0.6572830911020517  0.1774803621031751  0.7591409203909691
  0.1572830911020517  0.6774803621031751  0.7591409203909691
  0.6516025761764155  0.6774717848471496  0.7521604930296562
  0.3511294105274274  0.3177942805378322  0.2368549125155965
  0.8451397442259818  0.3179542852766133  0.2646580694508813
  0.3451397442259818  0.8179542852766133  0.2646580694508813
  0.8511294105274274  0.8177942805378322  0.2368549125155965
  0.3451397442259818  0.3179542852766133  0.7646580694508742
  0.8511294105274274  0.3177942805378322  0.7368549125155965
  0.3511294105274274  0.8177942805378322  0.7368549125155965
  0.8451397442259818  0.8179542852766133  0.7646580694508742
  0.3512425473121326  0.1821603781102681  0.2369520919066446
  0.8451680531949464  0.1820493968323973  0.2648297077484827
  0.3451680531949464  0.6820493968323973  0.2648297077484827
  0.8512425473121326  0.6821603781102681  0.2369520919066446
  0.3451680531949464  0.1820493968323973  0.7648297077484827
  0.8512425473121326  0.1821603781102681  0.7369520919066446
  0.3512425473121326  0.6821603781102681  0.7369520919066446
  0.8451680531949464  0.6820493968323973  0.7648297077484827
  0.3165839992135417  0.2500376754153351  0.3457357115774258
  0.7897561467324863  0.2501493680235995  0.3654827777622387
  0.2897561467324863  0.7501493680236067  0.3654827777622387
  0.8165839992135417  0.7500376754153351  0.3457357115774258
  0.2897561467324863  0.2501493680235995  0.8654827777622387
  0.8165839992135417  0.2500376754153351  0.8457357115774258
  0.3165839992135417  0.7500376754153351  0.8457357115774258
  0.7897561467324863  0.7501493680236067  0.8654827777622387
  0.4724392035263918  0.4986651009474414  0.4888079237394081
  0.9724443484313312  0.5013144887824268  0.4888149702901998
  0.4724443484313312  0.0013144887824268  0.4888149702901998
  0.9724392035263918  0.9986651009474414  0.4888079237394081
  0.4724443484313312  0.5013144887824268  0.9888149702901998
  0.9724392035263918  0.4986651009474414  0.9888079237394081
  0.4724392035263918  0.9986651009474414  0.9888079237394081
  0.9724443484313312  0.0013144887824268  0.9888149702901998
  0.4547127459303297  0.5027332407165161  0.2375743090957059
  0.9547746027294721  0.4972488583081116  0.2375711748212836
  0.4547746027294721  0.9972488583081116  0.2375711748212836
  0.9547127459303297  0.0027332407165161  0.2375743090957059
  0.4547746027294721  0.4972488583081116  0.7375711748212836
  0.9547127459303297  0.5027332407165161  0.7375743090957059
  0.4547127459303297  0.0027332407165161  0.7375743090957059
  0.9547746027294721  0.9972488583081116  0.7375711748212836
  0.4699676162133599  0.2499741265646804  0.0109238584833733
  0.9293032629144307  0.2499838945264017  0.0127405769850455
  0.4293032629144307  0.7499838945264017  0.0127405769850455
  0.9699676162133599  0.7499741265646804  0.0109238584833733
  0.4293032629144307  0.2499838945264017  0.5127405769850455
  0.9699676162133599  0.2499741265646804  0.5109238584833733
  0.4699676162133599  0.7499741265646804  0.5109238584833733
  0.9293032629144307  0.7499838945264017  0.5127405769850455
  0.2161663996844823  0.5233205987435099  0.4612640520588727
  0.7161764771960932  0.4766742739740337  0.4612153516283399
  0.2161764771960932  0.9766742739740337  0.4612153516283399
  0.7161663996844823  0.0233205987435099  0.4612640520588727
  0.2161764771960932  0.4766742739740337  0.9612153516283399
  0.7161663996844823  0.5233205987435099  0.9612640520588727
  0.2161663996844823  0.0233205987435099  0.9612640520588727
  0.7161764771960932  0.9766742739740337  0.9612153516283399
 
  0.00000000E+00  0.00000000E+00  0.00000000E+00
  0.00000000E+00  0.00000000E+00  0.00000000E+00
  0.00000000E+00  0.00000000E+00  0.00000000E+00
  0.00000000E+00  0.00000000E+00  0.00000000E+00
  0.00000000E+00  0.00000000E+00  0.00000000E+00
  0.00000000E+00  0.00000000E+00  0.00000000E+00
  0.00000000E+00  0.00000000E+00  0.00000000E+00
  0.00000000E+00  0.00000000E+00  0.00000000E+00
  0.00000000E+00  0.00000000E+00  0.00000000E+00
  0.00000000E+00  0.00000000E+00  0.00000000E+00
  0.00000000E+00  0.00000000E+00  0.00000000E+00
  0.00000000E+00  0.00000000E+00  0.00000000E+00
  0.00000000E+00  0.00000000E+00  0.00000000E+00
  0.00000000E+00  0.00000000E+00  0.00000000E+00
  0.00000000E+00  0.00000000E+00  0.00000000E+00
  0.00000000E+00  0.00000000E+00  0.00000000E+00
  0.00000000E+00  0.00000000E+00  0.00000000E+00
  0.00000000E+00  0.00000000E+00  0.00000000E+00
  0.00000000E+00  0.00000000E+00  0.00000000E+00
  0.00000000E+00  0.00000000E+00  0.00000000E+00
  0.00000000E+00  0.00000000E+00  0.00000000E+00
  0.00000000E+00  0.00000000E+00  0.00000000E+00
  0.00000000E+00  0.00000000E+00  0.00000000E+00
  0.00000000E+00  0.00000000E+00  0.00000000E+00
  0.00000000E+00  0.00000000E+00  0.00000000E+00
  0.00000000E+00  0.00000000E+00  0.00000000E+00
  0.00000000E+00  0.00000000E+00  0.00000000E+00
  0.00000000E+00  0.00000000E+00  0.00000000E+00
  0.00000000E+00  0.00000000E+00  0.00000000E+00
  0.00000000E+00  0.00000000E+00  0.00000000E+00
  0.00000000E+00  0.00000000E+00  0.00000000E+00
  0.00000000E+00  0.00000000E+00  0.00000000E+00
  0.00000000E+00  0.00000000E+00  0.00000000E+00
  0.00000000E+00  0.00000000E+00  0.00000000E+00
  0.00000000E+00  0.00000000E+00  0.00000000E+00
  0.00000000E+00  0.00000000E+00  0.00000000E+00
  0.00000000E+00  0.00000000E+00  0.00000000E+00
  0.00000000E+00  0.00000000E+00  0.00000000E+00
  0.00000000E+00  0.00000000E+00  0.00000000E+00
  0.00000000E+00  0.00000000E+00  0.00000000E+00
  0.00000000E+00  0.00000000E+00  0.00000000E+00
  0.00000000E+00  0.00000000E+00  0.00000000E+00
  0.00000000E+00  0.00000000E+00  0.00000000E+00
  0.00000000E+00  0.00000000E+00  0.00000000E+00
  0.00000000E+00  0.00000000E+00  0.00000000E+00
  0.00000000E+00  0.00000000E+00  0.00000000E+00
  0.00000000E+00  0.00000000E+00  0.00000000E+00
  0.00000000E+00  0.00000000E+00  0.00000000E+00
  0.00000000E+00  0.00000000E+00  0.00000000E+00
  0.00000000E+00  0.00000000E+00  0.00000000E+00
  0.00000000E+00  0.00000000E+00  0.00000000E+00
  0.00000000E+00  0.00000000E+00  0.00000000E+00
  0.00000000E+00  0.00000000E+00  0.00000000E+00
  0.00000000E+00  0.00000000E+00  0.00000000E+00
  0.00000000E+00  0.00000000E+00  0.00000000E+00
  0.00000000E+00  0.00000000E+00  0.00000000E+00
  0.00000000E+00  0.00000000E+00  0.00000000E+00
  0.00000000E+00  0.00000000E+00  0.00000000E+00
  0.00000000E+00  0.00000000E+00  0.00000000E+00
  0.00000000E+00  0.00000000E+00  0.00000000E+00
  0.00000000E+00  0.00000000E+00  0.00000000E+00
  0.00000000E+00  0.00000000E+00  0.00000000E+00
  0.00000000E+00  0.00000000E+00  0.00000000E+00
  0.00000000E+00  0.00000000E+00  0.00000000E+00
  0.00000000E+00  0.00000000E+00  0.00000000E+00
  0.00000000E+00  0.00000000E+00  0.00000000E+00
  0.00000000E+00  0.00000000E+00  0.00000000E+00
  0.00000000E+00  0.00000000E+00  0.00000000E+00
  0.00000000E+00  0.00000000E+00  0.00000000E+00
  0.00000000E+00  0.00000000E+00  0.00000000E+00
  0.00000000E+00  0.00000000E+00  0.00000000E+00
  0.00000000E+00  0.00000000E+00  0.00000000E+00
  0.00000000E+00  0.00000000E+00  0.00000000E+00
  0.00000000E+00  0.00000000E+00  0.00000000E+00
  0.00000000E+00  0.00000000E+00  0.00000000E+00
  0.00000000E+00  0.00000000E+00  0.00000000E+00
  0.00000000E+00  0.00000000E+00  0.00000000E+00
  0.00000000E+00  0.00000000E+00  0.00000000E+00
  0.00000000E+00  0.00000000E+00  0.00000000E+00
  0.00000000E+00  0.00000000E+00  0.00000000E+00
  0.00000000E+00  0.00000000E+00  0.00000000E+00
  0.00000000E+00  0.00000000E+00  0.00000000E+00
  0.00000000E+00  0.00000000E+00  0.00000000E+00
  0.00000000E+00  0.00000000E+00  0.00000000E+00
  0.00000000E+00  0.00000000E+00  0.00000000E+00
  0.00000000E+00  0.00000000E+00  0.00000000E+00
  0.00000000E+00  0.00000000E+00  0.00000000E+00
  0.00000000E+00  0.00000000E+00  0.00000000E+00
  0.00000000E+00  0.00000000E+00  0.00000000E+00
  0.00000000E+00  0.00000000E+00  0.00000000E+00
  0.00000000E+00  0.00000000E+00  0.00000000E+00
  0.00000000E+00  0.00000000E+00  0.00000000E+00
  0.00000000E+00  0.00000000E+00  0.00000000E+00
  0.00000000E+00  0.00000000E+00  0.00000000E+00
  0.00000000E+00  0.00000000E+00  0.00000000E+00
  0.00000000E+00  0.00000000E+00  0.00000000E+00
