C N H Pb I                              
   1.00000000000000     
    12.5768374277686394    0.0019159116494978    0.1381987933539664
     0.0011956322447466   12.4575380825249127   -0.0007464134870236
     0.1394107043392118    0.0000890449825412   12.7474206252920563
   C    N    H    Pb   I 
     8     8    48     8    24
Direct
  0.1975934977707681  0.2498610668034189  0.2286444475900282
  0.6963947670545281  0.2499554834251896  0.2291862610910655
  0.1963947670545281  0.7499554834251896  0.2291862610910655
  0.6975934977707681  0.7498610668034189  0.2286444475900282
  0.1963947670545281  0.2499554834251896  0.7291862610910655
  0.6975934977707681  0.2498610668034189  0.7286444475900282
  0.1975934977707681  0.7498610668034189  0.7286444475900282
  0.6963947670545281  0.7499554834251896  0.7291862610910655
  0.3100790431157776  0.2499733144643130  0.2624998492171855
  0.7989953947176573  0.2500339667688536  0.2852687437314216
  0.2989953947176573  0.7500339667688536  0.2852687437314216
  0.8100790431157776  0.7499733144643130  0.2624998492171855
  0.2989953947176573  0.2500339667688536  0.7852687437314216
  0.8100790431157776  0.2499733144643130  0.7624998492171855
  0.3100790431157776  0.7499733144643130  0.7624998492171855
  0.7989953947176573  0.7500339667688536  0.7852687437314216
  0.1964780270367328  0.2497741253329764  0.1419639879613612
  0.7136723074367737  0.2498680673150844  0.1438132639320671
  0.2136723074367737  0.7498680673150773  0.1438132639320671
  0.6964780270367328  0.7497741253329764  0.1419639879613612
  0.2136723074367737  0.2498680673150844  0.6438132639320671
  0.6964780270367328  0.2497741253329764  0.6419639879613612
  0.1964780270367328  0.7497741253329764  0.6419639879613612
  0.7136723074367737  0.7498680673150844  0.6438132639320671
  0.1574732629870468  0.3222370532538861  0.2594266548323390
  0.6512023503698003  0.3224673201268686  0.2516039836602957
  0.1512023503698003  0.8224673201268686  0.2516039836602957
  0.6574732629870468  0.8222370532538861  0.2594266548323390
  0.1512023503698003  0.3224673201268686  0.7516039836602957
  0.6574732629870468  0.3222370532538861  0.7594266548323390
  0.1574732629870468  0.8222370532538861  0.7594266548323390
  0.6512023503698003  0.8224673201268686  0.7516039836602957
  0.1576180857624934  0.1774808679261568  0.2595525742505700
  0.6512675815159739  0.1774712790241679  0.2517488391700553
  0.1512675815159739  0.6774712790241679  0.2517488391700553
  0.6576180857624934  0.6774808679261568  0.2595525742505700
  0.1512675815159739  0.1774712790241679  0.7517488391700553
  0.6576180857624934  0.1774808679261568  0.7595525742505700
  0.1576180857624934  0.6774808679261568  0.7595525742505700
  0.6512675815159739  0.6774712790241679  0.7517488391700553
  0.3514826366442634  0.3177848446444642  0.2352152884254295
  0.8447865181091458  0.3179637211699813  0.2662976935410484
  0.3447865181091458  0.8179637211699813  0.2662976935410484
  0.8514826366442634  0.8177848446444642  0.2352152884254295
  0.3447865181091458  0.3179637211699813  0.7662976935410484
  0.8514826366442634  0.3177848446444642  0.7352152884254295
  0.3514826366442634  0.8177848446444642  0.7352152884254295
  0.8447865181091458  0.8179637211699813  0.7662976935410484
  0.3516007759447106  0.1821669229633329  0.2353080767821254
  0.8448098245623683  0.1820428519793325  0.2664737228730019
  0.3448098245623683  0.6820428519793325  0.2664737228730019
  0.8516007759447106  0.6821669229633329  0.2353080767821254
  0.3448098245623683  0.1820428519793325  0.7664737228730019
  0.8516007759447106  0.1821669229633329  0.7353080767821254
  0.3516007759447106  0.6821669229633329  0.7353080767821254
  0.8448098245623683  0.6820428519793325  0.7664737228730019
  0.3181661070769763  0.2500310886132837  0.3445711759996044
  0.7881740388690517  0.2501559548256580  0.3666473133400601
  0.2881740388690517  0.7501559548256580  0.3666473133400601
  0.8181661070769763  0.7500310886132837  0.3445711759996044
  0.2881740388690517  0.2501559548256580  0.8666473133400601
  0.8181661070769763  0.2500310886132837  0.8445711759996044
  0.3181661070769763  0.7500310886132837  0.8445711759996044
  0.7881740388690517  0.7501559548256580  0.8666473133400601
  0.4724389001180356  0.4985088596929472  0.4888075081860777
  0.9724446518396874  0.5014707300369210  0.4888153858435302
  0.4724446518396874  0.0014707300369210  0.4888153858435302
  0.9724389001180356  0.9985088596929472  0.4888075081860777
  0.4724446518396874  0.5014707300369210  0.9888153858435302
  0.9724389001180356  0.4985088596929472  0.9888075081860777
  0.4724389001180356  0.9985088596929472  0.9888075081860777
  0.9724446518396874  0.0014707300369210  0.9888153858435302
  0.4547090980748578  0.5030566689350238  0.2375744939319802
  0.9547782505849440  0.4969254300896040  0.2375709899850094
  0.4547782505849440  0.9969254300896040  0.2375709899850094
  0.9547090980748578  0.0030566689350238  0.2375744939319802
  0.4547782505849440  0.4969254300896040  0.7375709899850094
  0.9547090980748578  0.5030566689350238  0.7375744939319802
  0.4547090980748578  0.0030566689350238  0.7375744939319802
  0.9547782505849440  0.9969254300896040  0.7375709899850094
  0.4723656983245093  0.2499735505227108  0.0108167218935549
  0.9269051808032813  0.2499844705683714  0.0128477135748639
  0.4269051808032813  0.7499844705683714  0.0128477135748639
  0.9723656983245093  0.7499735505227108  0.0108167218935549
  0.4269051808032813  0.2499844705683714  0.5128477135748639
  0.9723656983245093  0.2499735505227108  0.5108167218935549
  0.4723656983245093  0.7499735505227108  0.5108167218935549
  0.9269051808032813  0.7499844705683714  0.5128477135748639
  0.2161658053875541  0.5260714531874129  0.4612669240492480
  0.7161770714930213  0.4739234195301307  0.4612124796379646
  0.2161770714930213  0.9739234195301307  0.4612124796379646
  0.7161658053875541  0.0260714531874129  0.4612669240492480
  0.2161770714930213  0.4739234195301307  0.9612124796379646
  0.7161658053875541  0.5260714531874129  0.9612669240492480
  0.2161658053875541  0.0260714531874129  0.9612669240492480
  0.7161770714930213  0.9739234195301307  0.9612124796379646
 
  0.00000000E+00  0.00000000E+00  0.00000000E+00
  0.00000000E+00  0.00000000E+00  0.00000000E+00
  0.00000000E+00  0.00000000E+00  0.00000000E+00
  0.00000000E+00  0.00000000E+00  0.00000000E+00
  0.00000000E+00  0.00000000E+00  0.00000000E+00
  0.00000000E+00  0.00000000E+00  0.00000000E+00
  0.00000000E+00  0.00000000E+00  0.00000000E+00
  0.00000000E+00  0.00000000E+00  0.00000000E+00
  0.00000000E+00  0.00000000E+00  0.00000000E+00
  0.00000000E+00  0.00000000E+00  0.00000000E+00
  0.00000000E+00  0.00000000E+00  0.00000000E+00
  0.00000000E+00  0.00000000E+00  0.00000000E+00
  0.00000000E+00  0.00000000E+00  0.00000000E+00
  0.00000000E+00  0.00000000E+00  0.00000000E+00
  0.00000000E+00  0.00000000E+00  0.00000000E+00
  0.00000000E+00  0.00000000E+00  0.00000000E+00
  0.00000000E+00  0.00000000E+00  0.00000000E+00
  0.00000000E+00  0.00000000E+00  0.00000000E+00
  0.00000000E+00  0.00000000E+00  0.00000000E+00
  0.00000000E+00  0.00000000E+00  0.00000000E+00
  0.00000000E+00  0.00000000E+00  0.00000000E+00
  0.00000000E+00  0.00000000E+00  0.00000000E+00
  0.00000000E+00  0.00000000E+00  0.00000000E+00
  0.00000000E+00  0.00000000E+00  0.00000000E+00
  0.00000000E+00  0.00000000E+00  0.00000000E+00
  0.00000000E+00  0.00000000E+00  0.00000000E+00
  0.00000000E+00  0.00000000E+00  0.00000000E+00
  0.00000000E+00  0.00000000E+00  0.00000000E+00
  0.00000000E+00  0.00000000E+00  0.00000000E+00
  0.00000000E+00  0.00000000E+00  0.00000000E+00
  0.00000000E+00  0.00000000E+00  0.00000000E+00
  0.00000000E+00  0.00000000E+00  0.00000000E+00
  0.00000000E+00  0.00000000E+00  0.00000000E+00
  0.00000000E+00  0.00000000E+00  0.00000000E+00
  0.00000000E+00  0.00000000E+00  0.00000000E+00
  0.00000000E+00  0.00000000E+00  0.00000000E+00
  0.00000000E+00  0.00000000E+00  0.00000000E+00
  0.00000000E+00  0.00000000E+00  0.00000000E+00
  0.00000000E+00  0.00000000E+00  0.00000000E+00
  0.00000000E+00  0.00000000E+00  0.00000000E+00
  0.00000000E+00  0.00000000E+00  0.00000000E+00
  0.00000000E+00  0.00000000E+00  0.00000000E+00
  0.00000000E+00  0.00000000E+00  0.00000000E+00
  0.00000000E+00  0.00000000E+00  0.00000000E+00
  0.00000000E+00  0.00000000E+00  0.00000000E+00
  0.00000000E+00  0.00000000E+00  0.00000000E+00
  0.00000000E+00  0.00000000E+00  0.00000000E+00
  0.00000000E+00  0.00000000E+00  0.00000000E+00
  0.00000000E+00  0.00000000E+00  0.00000000E+00
  0.00000000E+00  0.00000000E+00  0.00000000E+00
  0.00000000E+00  0.00000000E+00  0.00000000E+00
  0.00000000E+00  0.00000000E+00  0.00000000E+00
  0.00000000E+00  0.00000000E+00  0.00000000E+00
  0.00000000E+00  0.00000000E+00  0.00000000E+00
  0.00000000E+00  0.00000000E+00  0.00000000E+00
  0.00000000E+00  0.00000000E+00  0.00000000E+00
  0.00000000E+00  0.00000000E+00  0.00000000E+00
  0.00000000E+00  0.00000000E+00  0.00000000E+00
  0.00000000E+00  0.00000000E+00  0.00000000E+00
  0.00000000E+00  0.00000000E+00  0.00000000E+00
  0.00000000E+00  0.00000000E+00  0.00000000E+00
  0.00000000E+00  0.00000000E+00  0.00000000E+00
  0.00000000E+00  0.00000000E+00  0.00000000E+00
  0.00000000E+00  0.00000000E+00  0.00000000E+00
  0.00000000E+00  0.00000000E+00  0.00000000E+00
  0.00000000E+00  0.00000000E+00  0.00000000E+00
  0.00000000E+00  0.00000000E+00  0.00000000E+00
  0.00000000E+00  0.00000000E+00  0.00000000E+00
  0.00000000E+00  0.00000000E+00  0.00000000E+00
  0.00000000E+00  0.00000000E+00  0.00000000E+00
  0.00000000E+00  0.00000000E+00  0.00000000E+00
  0.00000000E+00  0.00000000E+00  0.00000000E+00
  0.00000000E+00  0.00000000E+00  0.00000000E+00
  0.00000000E+00  0.00000000E+00  0.00000000E+00
  0.00000000E+00  0.00000000E+00  0.00000000E+00
  0.00000000E+00  0.00000000E+00  0.00000000E+00
  0.00000000E+00  0.00000000E+00  0.00000000E+00
  0.00000000E+00  0.00000000E+00  0.00000000E+00
  0.00000000E+00  0.00000000E+00  0.00000000E+00
  0.00000000E+00  0.00000000E+00  0.00000000E+00
  0.00000000E+00  0.00000000E+00  0.00000000E+00
  0.00000000E+00  0.00000000E+00  0.00000000E+00
  0.00000000E+00  0.00000000E+00  0.00000000E+00
  0.00000000E+00  0.00000000E+00  0.00000000E+00
  0.00000000E+00  0.00000000E+00  0.00000000E+00
  0.00000000E+00  0.00000000E+00  0.00000000E+00
  0.00000000E+00  0.00000000E+00  0.00000000E+00
  0.00000000E+00  0.00000000E+00  0.00000000E+00
  0.00000000E+00  0.00000000E+00  0.00000000E+00
  0.00000000E+00  0.00000000E+00  0.00000000E+00
  0.00000000E+00  0.00000000E+00  0.00000000E+00
  0.00000000E+00  0.00000000E+00  0.00000000E+00
  0.00000000E+00  0.00000000E+00  0.00000000E+00
  0.00000000E+00  0.00000000E+00  0.00000000E+00
  0.00000000E+00  0.00000000E+00  0.00000000E+00
  0.00000000E+00  0.00000000E+00  0.00000000E+00
