C N H Pb I                              
   1.00000000000000     
    12.5768374277686394    0.0019159116494978    0.1381987933539664
     0.0011956322447466   12.4575380825249127   -0.0007464134870236
     0.1394107043392118    0.0000890449825412   12.7474206252920563
   C    N    H    Pb   I 
     8     8    48     8    24
Direct
  0.1976567318658340  0.2498560862439376  0.2286158664533602
  0.6963315329594622  0.2499604639846709  0.2292148422277336
  0.1963315329594622  0.7499604639846709  0.2292148422277336
  0.6976567318658340  0.7498560862439376  0.2286158664533602
  0.1963315329594622  0.2499604639846709  0.7292148422277336
  0.6976567318658340  0.2498560862439376  0.7286158664533602
  0.1976567318658340  0.7498560862439376  0.7286158664533602
  0.6963315329594622  0.7499604639846709  0.7292148422277336
  0.3106637152752469  0.2499701150021352  0.2612987700917699
  0.7984107225581880  0.2500371662310314  0.2864698228568372
  0.2984107225581880  0.7500371662310314  0.2864698228568372
  0.8106637152752469  0.7499701150021352  0.2612987700917699
  0.2984107225581880  0.2500371662310314  0.7864698228568372
  0.8106637152752469  0.2499701150021352  0.7612987700917699
  0.3106637152752469  0.7499701150021352  0.7612987700917699
  0.7984107225581880  0.7500371662310314  0.7864698228568372
  0.1955710136877897  0.2497691698111524  0.1418664370344089
  0.7145793207857167  0.2498730228369084  0.1439108148590194
  0.2145793207857167  0.7498730228369084  0.1439108148590194
  0.6955710136877897  0.7497691698111524  0.1418664370344089
  0.2145793207857167  0.2498730228369084  0.6439108148590194
  0.6955710136877897  0.2497691698111524  0.6418664370344089
  0.1955710136877897  0.7497691698111524  0.6418664370344089
  0.7145793207857167  0.7498730228369084  0.6439108148590194
  0.1578040591193428  0.3222249064746805  0.2598393075873418
  0.6508715542375043  0.3224794669060742  0.2511913309052929
  0.1508715542375043  0.8224794669060742  0.2511913309052929
  0.6578040591193428  0.8222249064746805  0.2598393075873418
  0.1508715542375043  0.3224794669060742  0.7511913309052929
  0.6578040591193428  0.3222249064746805  0.7598393075873418
  0.1578040591193428  0.8222249064746805  0.7598393075873418
  0.6508715542375043  0.8224794669060742  0.7511913309052929
  0.1579530804229279  0.1774813737491314  0.2599642281101637
  0.6509325868555393  0.1774707732011933  0.2513371853104616
  0.1509325868555393  0.6774707732011933  0.2513371853104616
  0.6579530804229279  0.6774813737491314  0.2599642281101637
  0.1509325868555393  0.1774707732011933  0.7513371853104616
  0.6579530804229279  0.1774813737491314  0.7599642281101637
  0.1579530804229279  0.6774813737491314  0.7599642281101637
  0.6509325868555393  0.6774707732011933  0.7513371853104616
  0.3518358627610993  0.3177754087510891  0.2335756643352553
  0.8444332919923099  0.3179731570633564  0.2679373176312225
  0.3444332919923099  0.8179731570633564  0.2679373176312225
  0.8518358627610993  0.8177754087510891  0.2335756643352553
  0.3444332919923099  0.3179731570633564  0.7679373176312225
  0.8518358627610993  0.3177754087510891  0.7335756643352553
  0.3518358627610993  0.8177754087510891  0.7335756643352553
  0.8444332919923099  0.8179731570633564  0.7679373176312225
  0.3519590045772816  0.1821734678163907  0.2336640616576133
  0.8444515959297973  0.1820363071262747  0.2681177379975139
  0.3444515959297973  0.6820363071262747  0.2681177379975139
  0.8519590045772816  0.6821734678163907  0.2336640616576133
  0.3444515959297973  0.1820363071262747  0.7681177379975139
  0.8519590045772816  0.1821734678163907  0.7336640616576133
  0.3519590045772816  0.6821734678163907  0.7336640616576133
  0.8444515959297973  0.6820363071262747  0.7681177379975139
  0.3197482149404038  0.2500245018112324  0.3434066404217830
  0.7865919310056242  0.2501625416277093  0.3678118489178814
  0.2865919310056242  0.7501625416277093  0.3678118489178814
  0.8197482149404038  0.7500245018112324  0.3434066404217830
  0.2865919310056242  0.2501625416277093  0.8678118489178814
  0.8197482149404038  0.2500245018112324  0.8434066404217830
  0.3197482149404038  0.7500245018112324  0.8434066404217830
  0.7865919310056242  0.7501625416277093  0.8678118489178814
  0.4724385967096794  0.4983526184384530  0.4888070926327472
  0.9724449552480436  0.5016269712914152  0.4888158013968606
  0.4724449552480436  0.0016269712914152  0.4888158013968606
  0.9724385967096794  0.9983526184384530  0.4888070926327472
  0.4724449552480436  0.5016269712914152  0.9888158013968606
  0.9724385967096794  0.4983526184384530  0.9888070926327472
  0.4724385967096794  0.9983526184384530  0.9888070926327472
  0.9724449552480436  0.0016269712914152  0.9888158013968606
  0.4547054502193930  0.5033800971535314  0.2375746787682473
  0.9547818984404088  0.4966020018710964  0.2375708051487422
  0.4547818984404088  0.9966020018710893  0.2375708051487422
  0.9547054502193930  0.0033800971535314  0.2375746787682473
  0.4547818984404088  0.4966020018710964  0.7375708051487422
  0.9547054502193930  0.5033800971535314  0.7375746787682473
  0.4547054502193930  0.0033800971535314  0.7375746787682473
  0.9547818984404088  0.9966020018710893  0.7375708051487422
  0.4747637804356657  0.2499729744807340  0.0107095853037293
  0.9245070986921249  0.2499850466103481  0.0129548501646894
  0.4245070986921249  0.7499850466103481  0.0129548501646894
  0.9747637804356657  0.7499729744807340  0.0107095853037293
  0.4245070986921249  0.2499850466103481  0.5129548501646894
  0.9747637804356657  0.2499729744807340  0.5107095853037293
  0.4747637804356657  0.7499729744807340  0.5107095853037293
  0.9245070986921249  0.7499850466103481  0.5129548501646894
  0.2161652110906260  0.5288223076313230  0.4612697960396233
  0.7161776657899495  0.4711725650862206  0.4612096076475893
  0.2161776657899495  0.9711725650862206  0.4612096076475893
  0.7161652110906260  0.0288223076313230  0.4612697960396233
  0.2161776657899495  0.4711725650862206  0.9612096076475893
  0.7161652110906260  0.5288223076313230  0.9612697960396233
  0.2161652110906260  0.0288223076313230  0.9612697960396233
  0.7161776657899495  0.9711725650862206  0.9612096076475893
 
  0.00000000E+00  0.00000000E+00  0.00000000E+00
  0.00000000E+00  0.00000000E+00  0.00000000E+00
  0.00000000E+00  0.00000000E+00  0.00000000E+00
  0.00000000E+00  0.00000000E+00  0.00000000E+00
  0.00000000E+00  0.00000000E+00  0.00000000E+00
  0.00000000E+00  0.00000000E+00  0.00000000E+00
  0.00000000E+00  0.00000000E+00  0.00000000E+00
  0.00000000E+00  0.00000000E+00  0.00000000E+00
  0.00000000E+00  0.00000000E+00  0.00000000E+00
  0.00000000E+00  0.00000000E+00  0.00000000E+00
  0.00000000E+00  0.00000000E+00  0.00000000E+00
  0.00000000E+00  0.00000000E+00  0.00000000E+00
  0.00000000E+00  0.00000000E+00  0.00000000E+00
  0.00000000E+00  0.00000000E+00  0.00000000E+00
  0.00000000E+00  0.00000000E+00  0.00000000E+00
  0.00000000E+00  0.00000000E+00  0.00000000E+00
  0.00000000E+00  0.00000000E+00  0.00000000E+00
  0.00000000E+00  0.00000000E+00  0.00000000E+00
  0.00000000E+00  0.00000000E+00  0.00000000E+00
  0.00000000E+00  0.00000000E+00  0.00000000E+00
  0.00000000E+00  0.00000000E+00  0.00000000E+00
  0.00000000E+00  0.00000000E+00  0.00000000E+00
  0.00000000E+00  0.00000000E+00  0.00000000E+00
  0.00000000E+00  0.00000000E+00  0.00000000E+00
  0.00000000E+00  0.00000000E+00  0.00000000E+00
  0.00000000E+00  0.00000000E+00  0.00000000E+00
  0.00000000E+00  0.00000000E+00  0.00000000E+00
  0.00000000E+00  0.00000000E+00  0.00000000E+00
  0.00000000E+00  0.00000000E+00  0.00000000E+00
  0.00000000E+00  0.00000000E+00  0.00000000E+00
  0.00000000E+00  0.00000000E+00  0.00000000E+00
  0.00000000E+00  0.00000000E+00  0.00000000E+00
  0.00000000E+00  0.00000000E+00  0.00000000E+00
  0.00000000E+00  0.00000000E+00  0.00000000E+00
  0.00000000E+00  0.00000000E+00  0.00000000E+00
  0.00000000E+00  0.00000000E+00  0.00000000E+00
  0.00000000E+00  0.00000000E+00  0.00000000E+00
  0.00000000E+00  0.00000000E+00  0.00000000E+00
  0.00000000E+00  0.00000000E+00  0.00000000E+00
  0.00000000E+00  0.00000000E+00  0.00000000E+00
  0.00000000E+00  0.00000000E+00  0.00000000E+00
  0.00000000E+00  0.00000000E+00  0.00000000E+00
  0.00000000E+00  0.00000000E+00  0.00000000E+00
  0.00000000E+00  0.00000000E+00  0.00000000E+00
  0.00000000E+00  0.00000000E+00  0.00000000E+00
  0.00000000E+00  0.00000000E+00  0.00000000E+00
  0.00000000E+00  0.00000000E+00  0.00000000E+00
  0.00000000E+00  0.00000000E+00  0.00000000E+00
  0.00000000E+00  0.00000000E+00  0.00000000E+00
  0.00000000E+00  0.00000000E+00  0.00000000E+00
  0.00000000E+00  0.00000000E+00  0.00000000E+00
  0.00000000E+00  0.00000000E+00  0.00000000E+00
  0.00000000E+00  0.00000000E+00  0.00000000E+00
  0.00000000E+00  0.00000000E+00  0.00000000E+00
  0.00000000E+00  0.00000000E+00  0.00000000E+00
  0.00000000E+00  0.00000000E+00  0.00000000E+00
  0.00000000E+00  0.00000000E+00  0.00000000E+00
  0.00000000E+00  0.00000000E+00  0.00000000E+00
  0.00000000E+00  0.00000000E+00  0.00000000E+00
  0.00000000E+00  0.00000000E+00  0.00000000E+00
  0.00000000E+00  0.00000000E+00  0.00000000E+00
  0.00000000E+00  0.00000000E+00  0.00000000E+00
  0.00000000E+00  0.00000000E+00  0.00000000E+00
  0.00000000E+00  0.00000000E+00  0.00000000E+00
  0.00000000E+00  0.00000000E+00  0.00000000E+00
  0.00000000E+00  0.00000000E+00  0.00000000E+00
  0.00000000E+00  0.00000000E+00  0.00000000E+00
  0.00000000E+00  0.00000000E+00  0.00000000E+00
  0.00000000E+00  0.00000000E+00  0.00000000E+00
  0.00000000E+00  0.00000000E+00  0.00000000E+00
  0.00000000E+00  0.00000000E+00  0.00000000E+00
  0.00000000E+00  0.00000000E+00  0.00000000E+00
  0.00000000E+00  0.00000000E+00  0.00000000E+00
  0.00000000E+00  0.00000000E+00  0.00000000E+00
  0.00000000E+00  0.00000000E+00  0.00000000E+00
  0.00000000E+00  0.00000000E+00  0.00000000E+00
  0.00000000E+00  0.00000000E+00  0.00000000E+00
  0.00000000E+00  0.00000000E+00  0.00000000E+00
  0.00000000E+00  0.00000000E+00  0.00000000E+00
  0.00000000E+00  0.00000000E+00  0.00000000E+00
  0.00000000E+00  0.00000000E+00  0.00000000E+00
  0.00000000E+00  0.00000000E+00  0.00000000E+00
  0.00000000E+00  0.00000000E+00  0.00000000E+00
  0.00000000E+00  0.00000000E+00  0.00000000E+00
  0.00000000E+00  0.00000000E+00  0.00000000E+00
  0.00000000E+00  0.00000000E+00  0.00000000E+00
  0.00000000E+00  0.00000000E+00  0.00000000E+00
  0.00000000E+00  0.00000000E+00  0.00000000E+00
  0.00000000E+00  0.00000000E+00  0.00000000E+00
  0.00000000E+00  0.00000000E+00  0.00000000E+00
  0.00000000E+00  0.00000000E+00  0.00000000E+00
  0.00000000E+00  0.00000000E+00  0.00000000E+00
  0.00000000E+00  0.00000000E+00  0.00000000E+00
  0.00000000E+00  0.00000000E+00  0.00000000E+00
  0.00000000E+00  0.00000000E+00  0.00000000E+00
  0.00000000E+00  0.00000000E+00  0.00000000E+00
