C N H Pb I                              
   1.00000000000000     
    12.5768374277686394    0.0019159116494978    0.1381987933539664
     0.0011956322447466   12.4575380825249127   -0.0007464134870236
     0.1394107043392118    0.0000890449825412   12.7474206252920563
   C    N    H    Pb   I 
     8     8    48     8    24
Direct
  0.1969941324126481  0.2499082751143007  0.2289153543405504
  0.6969941324126481  0.2499082751143007  0.2289153543405504
  0.1969941324126481  0.7499082751143078  0.2289153543405504
  0.6969941324126481  0.7499082751143078  0.2289153543405504
  0.1969941324126481  0.2499082751143007  0.7289153543405433
  0.6969941324126481  0.2499082751143007  0.7289153543405433
  0.1969941324126481  0.7499082751143078  0.7289153543405433
  0.6969941324126481  0.7499082751143078  0.7289153543405433
  0.3045372189167139  0.2500036406165833  0.2738842964743071
  0.8045372189167210  0.2500036406165833  0.2738842964743071
  0.3045372189167139  0.7500036406165833  0.2738842964743071
  0.8045372189167139  0.7500036406165833  0.2738842964743071
  0.3045372189167139  0.2500036406165833  0.7738842964743071
  0.8045372189167139  0.2500036406165833  0.7738842964743071
  0.3045372189167139  0.7500036406165833  0.7738842964743071
  0.8045372189167139  0.7500036406165833  0.7738842964743000
  0.2050751672367497  0.2498210963240339  0.1428886259467106
  0.7050751672367497  0.2498210963240339  0.1428886259467106
  0.2050751672367497  0.7498210963240268  0.1428886259467106
  0.7050751672367497  0.7498210963240268  0.1428886259467106
  0.2050751672367497  0.2498210963240339  0.6428886259467106
  0.7050751672367497  0.2498210963240339  0.6428886259467177
  0.2050751672367497  0.7498210963240268  0.6428886259467177
  0.7050751672367497  0.7498210963240268  0.6428886259467106
  0.1543378066784200  0.3223521866903809  0.2555153192463209
  0.6543378066784200  0.3223521866903738  0.2555153192463138
  0.1543378066784200  0.8223521866903809  0.2555153192463209
  0.6543378066784200  0.8223521866903809  0.2555153192463138
  0.1543378066784200  0.3223521866903738  0.7555153192463138
  0.6543378066784200  0.3223521866903738  0.7555153192463138
  0.1543378066784200  0.8223521866903809  0.7555153192463138
  0.6543378066784200  0.8223521866903809  0.7555153192463209
  0.1544428336392372  0.1774760734751624  0.2556507067103126
  0.6544428336392301  0.1774760734751624  0.2556507067103126
  0.1544428336392372  0.6774760734751624  0.2556507067103126
  0.6544428336392301  0.6774760734751624  0.2556507067103126
  0.1544428336392372  0.1774760734751624  0.7556507067103126
  0.6544428336392301  0.1774760734751624  0.7556507067103126
  0.1544428336392372  0.6774760734751624  0.7556507067103126
  0.6544428336392301  0.6774760734751624  0.7556507067103126
  0.3481345773767046  0.3178742829072192  0.2507564909832425
  0.8481345773767046  0.3178742829072192  0.2507564909832354
  0.3481345773767046  0.8178742829072192  0.2507564909832354
  0.8481345773767046  0.8178742829072263  0.2507564909832354
  0.3481345773767046  0.3178742829072192  0.7507564909832354
  0.8481345773767046  0.3178742829072192  0.7507564909832354
  0.3481345773767046  0.8178742829072192  0.7507564909832354
  0.8481345773767046  0.8178742829072263  0.7507564909832354
  0.3482053002535395  0.1821048874713327  0.2508908998275601
  0.8482053002535395  0.1821048874713327  0.2508908998275601
  0.3482053002535395  0.6821048874713327  0.2508908998275601
  0.8482053002535395  0.6821048874713327  0.2508908998275601
  0.3482053002535395  0.1821048874713327  0.7508908998275672
  0.8482053002535395  0.1821048874713327  0.7508908998275601
  0.3482053002535395  0.6821048874713327  0.7508908998275601
  0.8482053002535395  0.6821048874713327  0.7508908998275672
  0.3031700729730176  0.2500935217194709  0.3556092446698287
  0.8031700729730105  0.2500935217194709  0.3556092446698287
  0.3031700729730176  0.7500935217194709  0.3556092446698287
  0.8031700729730105  0.7500935217194709  0.3556092446698287
  0.3031700729730176  0.2500935217194709  0.8556092446698287
  0.8031700729730105  0.2500935217194709  0.8556092446698358
  0.3031700729730176  0.7500935217194709  0.8556092446698358
  0.8031700729730105  0.7500935217194709  0.8556092446698358
  0.4724417759788579  0.4999897948649306  0.4888114470148039
  0.9724417759788579  0.4999897948649306  0.4888114470148039
  0.4724417759788651  0.9999897948649306  0.4888114470148039
  0.9724417759788579  0.9999897948649306  0.4888114470148039
  0.4724417759788579  0.4999897948649306  0.9888114470148039
  0.9724417759788579  0.4999897948649306  0.9888114470148039
  0.4724417759788579  0.9999897948649306  0.9888114470148039
  0.9724417759788579  0.9999897948649306  0.9888114470148039
  0.4547436743299045  0.4999910495123103  0.2375727419584948
  0.9547436743298974  0.4999910495123103  0.2375727419584948
  0.4547436743299045  0.9999910495123174  0.2375727419584948
  0.9547436743298974  0.9999910495123103  0.2375727419584948
  0.4547436743299045  0.4999910495123103  0.7375727419584948
  0.9547436743298974  0.4999910495123103  0.7375727419584948
  0.4547436743298974  0.9999910495123103  0.7375727419584948
  0.9547436743298974  0.9999910495123103  0.7375727419584948
  0.4496354395638917  0.2499790105455375  0.0118322177342094
  0.9496354395638917  0.2499790105455446  0.0118322177342094
  0.4496354395638917  0.7499790105455375  0.0118322177342094
  0.9496354395638917  0.7499790105455375  0.0118322177342094
  0.4496354395638917  0.2499790105455375  0.5118322177342094
  0.9496354395638917  0.2499790105455375  0.5118322177342094
  0.4496354395638917  0.7499790105455446  0.5118322177342094
  0.9496354395638917  0.7499790105455375  0.5118322177342094
  0.2161714384402842  0.4999974363587683  0.4612397018436099
  0.7161714384402842  0.4999974363587683  0.4612397018436099
  0.2161714384402842  0.9999974363587683  0.4612397018436099
  0.7161714384402842  0.9999974363587683  0.4612397018436099
  0.2161714384402842  0.4999974363587683  0.9612397018436099
  0.7161714384402842  0.4999974363587683  0.9612397018436099
  0.2161714384402842  0.9999974363587683  0.9612397018436099
  0.7161714384402842  0.9999974363587683  0.9612397018436099
 
  0.00000000E+00  0.00000000E+00  0.00000000E+00
  0.00000000E+00  0.00000000E+00  0.00000000E+00
  0.00000000E+00  0.00000000E+00  0.00000000E+00
  0.00000000E+00  0.00000000E+00  0.00000000E+00
  0.00000000E+00  0.00000000E+00  0.00000000E+00
  0.00000000E+00  0.00000000E+00  0.00000000E+00
  0.00000000E+00  0.00000000E+00  0.00000000E+00
  0.00000000E+00  0.00000000E+00  0.00000000E+00
  0.00000000E+00  0.00000000E+00  0.00000000E+00
  0.00000000E+00  0.00000000E+00  0.00000000E+00
  0.00000000E+00  0.00000000E+00  0.00000000E+00
  0.00000000E+00  0.00000000E+00  0.00000000E+00
  0.00000000E+00  0.00000000E+00  0.00000000E+00
  0.00000000E+00  0.00000000E+00  0.00000000E+00
  0.00000000E+00  0.00000000E+00  0.00000000E+00
  0.00000000E+00  0.00000000E+00  0.00000000E+00
  0.00000000E+00  0.00000000E+00  0.00000000E+00
  0.00000000E+00  0.00000000E+00  0.00000000E+00
  0.00000000E+00  0.00000000E+00  0.00000000E+00
  0.00000000E+00  0.00000000E+00  0.00000000E+00
  0.00000000E+00  0.00000000E+00  0.00000000E+00
  0.00000000E+00  0.00000000E+00  0.00000000E+00
  0.00000000E+00  0.00000000E+00  0.00000000E+00
  0.00000000E+00  0.00000000E+00  0.00000000E+00
  0.00000000E+00  0.00000000E+00  0.00000000E+00
  0.00000000E+00  0.00000000E+00  0.00000000E+00
  0.00000000E+00  0.00000000E+00  0.00000000E+00
  0.00000000E+00  0.00000000E+00  0.00000000E+00
  0.00000000E+00  0.00000000E+00  0.00000000E+00
  0.00000000E+00  0.00000000E+00  0.00000000E+00
  0.00000000E+00  0.00000000E+00  0.00000000E+00
  0.00000000E+00  0.00000000E+00  0.00000000E+00
  0.00000000E+00  0.00000000E+00  0.00000000E+00
  0.00000000E+00  0.00000000E+00  0.00000000E+00
  0.00000000E+00  0.00000000E+00  0.00000000E+00
  0.00000000E+00  0.00000000E+00  0.00000000E+00
  0.00000000E+00  0.00000000E+00  0.00000000E+00
  0.00000000E+00  0.00000000E+00  0.00000000E+00
  0.00000000E+00  0.00000000E+00  0.00000000E+00
  0.00000000E+00  0.00000000E+00  0.00000000E+00
  0.00000000E+00  0.00000000E+00  0.00000000E+00
  0.00000000E+00  0.00000000E+00  0.00000000E+00
  0.00000000E+00  0.00000000E+00  0.00000000E+00
  0.00000000E+00  0.00000000E+00  0.00000000E+00
  0.00000000E+00  0.00000000E+00  0.00000000E+00
  0.00000000E+00  0.00000000E+00  0.00000000E+00
  0.00000000E+00  0.00000000E+00  0.00000000E+00
  0.00000000E+00  0.00000000E+00  0.00000000E+00
  0.00000000E+00  0.00000000E+00  0.00000000E+00
  0.00000000E+00  0.00000000E+00  0.00000000E+00
  0.00000000E+00  0.00000000E+00  0.00000000E+00
  0.00000000E+00  0.00000000E+00  0.00000000E+00
  0.00000000E+00  0.00000000E+00  0.00000000E+00
  0.00000000E+00  0.00000000E+00  0.00000000E+00
  0.00000000E+00  0.00000000E+00  0.00000000E+00
  0.00000000E+00  0.00000000E+00  0.00000000E+00
  0.00000000E+00  0.00000000E+00  0.00000000E+00
  0.00000000E+00  0.00000000E+00  0.00000000E+00
  0.00000000E+00  0.00000000E+00  0.00000000E+00
  0.00000000E+00  0.00000000E+00  0.00000000E+00
  0.00000000E+00  0.00000000E+00  0.00000000E+00
  0.00000000E+00  0.00000000E+00  0.00000000E+00
  0.00000000E+00  0.00000000E+00  0.00000000E+00
  0.00000000E+00  0.00000000E+00  0.00000000E+00
  0.00000000E+00  0.00000000E+00  0.00000000E+00
  0.00000000E+00  0.00000000E+00  0.00000000E+00
  0.00000000E+00  0.00000000E+00  0.00000000E+00
  0.00000000E+00  0.00000000E+00  0.00000000E+00
  0.00000000E+00  0.00000000E+00  0.00000000E+00
  0.00000000E+00  0.00000000E+00  0.00000000E+00
  0.00000000E+00  0.00000000E+00  0.00000000E+00
  0.00000000E+00  0.00000000E+00  0.00000000E+00
  0.00000000E+00  0.00000000E+00  0.00000000E+00
  0.00000000E+00  0.00000000E+00  0.00000000E+00
  0.00000000E+00  0.00000000E+00  0.00000000E+00
  0.00000000E+00  0.00000000E+00  0.00000000E+00
  0.00000000E+00  0.00000000E+00  0.00000000E+00
  0.00000000E+00  0.00000000E+00  0.00000000E+00
  0.00000000E+00  0.00000000E+00  0.00000000E+00
  0.00000000E+00  0.00000000E+00  0.00000000E+00
  0.00000000E+00  0.00000000E+00  0.00000000E+00
  0.00000000E+00  0.00000000E+00  0.00000000E+00
  0.00000000E+00  0.00000000E+00  0.00000000E+00
  0.00000000E+00  0.00000000E+00  0.00000000E+00
  0.00000000E+00  0.00000000E+00  0.00000000E+00
  0.00000000E+00  0.00000000E+00  0.00000000E+00
  0.00000000E+00  0.00000000E+00  0.00000000E+00
  0.00000000E+00  0.00000000E+00  0.00000000E+00
  0.00000000E+00  0.00000000E+00  0.00000000E+00
  0.00000000E+00  0.00000000E+00  0.00000000E+00
  0.00000000E+00  0.00000000E+00  0.00000000E+00
  0.00000000E+00  0.00000000E+00  0.00000000E+00
  0.00000000E+00  0.00000000E+00  0.00000000E+00
  0.00000000E+00  0.00000000E+00  0.00000000E+00
  0.00000000E+00  0.00000000E+00  0.00000000E+00
  0.00000000E+00  0.00000000E+00  0.00000000E+00
