C N H Pb I                              
   1.00000000000000     
    12.5768374277686394    0.0019159116494978    0.1381987933539664
     0.0011956322447466   12.4575380825249127   -0.0007464134870236
     0.1394107043392118    0.0000890449825412   12.7474206252920563
   C    N    H    Pb   I 
     8     8    48     8    24
Direct
  0.1824364174851567  0.2498475719129374  0.2515886446812345
  0.7115518473401394  0.2499689783156640  0.2062420639998592
  0.2115518473401394  0.7499689783156640  0.2062420639998592
  0.6824364174851567  0.7498475719129374  0.2515886446812345
  0.1824364174851567  0.2498475719129374  0.7515886446812345
  0.7115518473401394  0.2499689783156711  0.7062420639998592
  0.2115518473401394  0.7499689783156640  0.7062420639998592
  0.6824364174851567  0.7498475719129374  0.7515886446812345
  0.3005310702707433  0.2499575868873976  0.2726018197453612
  0.8085433675626916  0.2500496943457691  0.2751667732032459
  0.3085433675626916  0.7500496943457691  0.2751667732032459
  0.8005310702707433  0.7499575868873976  0.2726018197453612
  0.3005310702707433  0.2499575868873976  0.7726018197453612
  0.8085433675626916  0.2500496943457691  0.7751667732032459
  0.3085433675626916  0.7500496943457691  0.7751667732032459
  0.8005310702707433  0.7499575868873976  0.7726018197453612
  0.1708209032923449  0.2498230261792784  0.1641844485214108
  0.7393294311811616  0.2498191664687823  0.1215928033720175
  0.2393294311811616  0.7498191664687823  0.1215928033720175
  0.6708209032923449  0.7498230261792784  0.1641844485214108
  0.1708209032923449  0.2498230261792784  0.6641844485214108
  0.7393294311811616  0.2498191664687823  0.6215928033720175
  0.2393294311811616  0.7498191664687823  0.6215928033720175
  0.6708209032923449  0.7498230261792784  0.6641844485214108
  0.1452387385333935  0.3221257190421909  0.2872830943286075
  0.6634368748234536  0.3225786543385638  0.2237475441640271
  0.1634368748234536  0.8225786543385638  0.2237475441640271
  0.6452387385333935  0.8221257190421909  0.2872830943286075
  0.1452387385333935  0.3221257190421909  0.7872830943286075
  0.6634368748234536  0.3225786543385638  0.7237475441640271
  0.1634368748234536  0.8225786543385638  0.7237475441640271
  0.6452387385333935  0.8221257190421909  0.7872830943286075
  0.1454361836113520  0.1775108431013663  0.2873111440858125
  0.6634494836671152  0.1774413038489584  0.2239902693348128
  0.1634494836671152  0.6774413038489584  0.2239902693348128
  0.6454361836113449  0.6775108431013663  0.2873111440858125
  0.1454361836113520  0.1775108431013663  0.7873111440858125
  0.6634494836671152  0.1774413038489584  0.7239902693348128
  0.1634494836671152  0.6774413038489584  0.7239902693348128
  0.6454361836113520  0.6775108431013663  0.7873111440858125
  0.3395189681478001  0.3173887758442575  0.2399324353513421
  0.8567501866056091  0.3183597899701880  0.2615805466151357
  0.3567501866056091  0.8183597899701880  0.2615805466151357
  0.8395189681478001  0.8173887758442575  0.2399324353513421
  0.3395189681478001  0.3173887758442575  0.7399324353513421
  0.8567501866056091  0.3183597899701880  0.7615805466151357
  0.3567501866056091  0.8183597899701809  0.7615805466151357
  0.8395189681478001  0.8173887758442575  0.7399324353513421
  0.3396794488651977  0.1825695198544324  0.2399548907680042
  0.8567311516418812  0.1816402550882330  0.2618269088871230
  0.3567311516418812  0.6816402550882330  0.2618269088871230
  0.8396794488651977  0.6825695198544324  0.2399548907680042
  0.3396794488651977  0.1825695198544324  0.7399548907680042
  0.8567311516418812  0.1816402550882330  0.7618269088871230
  0.3567311516418812  0.6816402550882330  0.7618269088871230
  0.8396794488651977  0.6825695198544324  0.7399548907680042
  0.3195182754052013  0.2499676768776808  0.3549606613603942
  0.7868218705408268  0.2502193665612609  0.3562578279792703
  0.2868218705408268  0.7502193665612609  0.3562578279792703
  0.8195182754052013  0.7499676768776808  0.3549606613603942
  0.3195182754052013  0.2499676768776808  0.8549606613603942
  0.7868218705408268  0.2502193665612609  0.8562578279792703
  0.2868218705408268  0.7502193665612609  0.8562578279792703
  0.8195182754052013  0.7499676768776808  0.8549606613603942
  0.4724290140490623  0.4976159152567092  0.4888146113438339
  0.9724545379086607  0.5023636744731590  0.4888082826857740
  0.4724545379086607  0.0023636744731590  0.4888082826857740
  0.9724290140490623  0.9976159152567092  0.4888146113438339
  0.4724290140490623  0.4976159152567092  0.9888146113438339
  0.9724545379086607  0.5023636744731590  0.9888082826857740
  0.4724545379086607  0.0023636744731590  0.9888082826857740
  0.9724290140490623  0.9976159152567092  0.9888146113438339
  0.4547082999238441  0.4987270443571674  0.2375802649724861
  0.9547790487359578  0.5012550546674603  0.2375652189445034
  0.4547790487359578  0.0012550546674603  0.2375652189445034
  0.9547082999238441  0.9987270443571674  0.2375802649724861
  0.4547082999238441  0.4987270443571674  0.7375802649724861
  0.9547790487359578  0.5012550546674603  0.7375652189445034
  0.4547790487359578  0.0012550546674603  0.7375652189445034
  0.9547082999238441  0.9987270443571674  0.7375802649724861
  0.4039069235424293  0.2499880436943300  0.0204256647094994
  0.9953639555853613  0.2499699773967521  0.0032387707589194
  0.4953639555853613  0.7499699773967521  0.0032387707589194
  0.9039069235424293  0.7499880436943300  0.0204256647094994
  0.4039069235424293  0.2499880436943300  0.5204256647094994
  0.9953639555853613  0.2499699773967521  0.5032387707589194
  0.4953639555853613  0.7499699773967521  0.5032387707589194
  0.9039069235424293  0.7499880436943300  0.5204256647094994
  0.2161604000643038  0.5545774747162824  0.4612397099935350
  0.7161824768162717  0.4454173980012612  0.4612396936936847
  0.2161824768162717  0.9454173980012612  0.4612396936936847
  0.7161604000643038  0.0545774747162824  0.4612397099935350
  0.2161604000643038  0.5545774747162824  0.9612397099935350
  0.7161824768162717  0.4454173980012612  0.9612396936936776
  0.2161824768162717  0.9454173980012612  0.9612396936936847
  0.7161604000643038  0.0545774747162824  0.9612397099935350
 
  0.00000000E+00  0.00000000E+00  0.00000000E+00
  0.00000000E+00  0.00000000E+00  0.00000000E+00
  0.00000000E+00  0.00000000E+00  0.00000000E+00
  0.00000000E+00  0.00000000E+00  0.00000000E+00
  0.00000000E+00  0.00000000E+00  0.00000000E+00
  0.00000000E+00  0.00000000E+00  0.00000000E+00
  0.00000000E+00  0.00000000E+00  0.00000000E+00
  0.00000000E+00  0.00000000E+00  0.00000000E+00
  0.00000000E+00  0.00000000E+00  0.00000000E+00
  0.00000000E+00  0.00000000E+00  0.00000000E+00
  0.00000000E+00  0.00000000E+00  0.00000000E+00
  0.00000000E+00  0.00000000E+00  0.00000000E+00
  0.00000000E+00  0.00000000E+00  0.00000000E+00
  0.00000000E+00  0.00000000E+00  0.00000000E+00
  0.00000000E+00  0.00000000E+00  0.00000000E+00
  0.00000000E+00  0.00000000E+00  0.00000000E+00
  0.00000000E+00  0.00000000E+00  0.00000000E+00
  0.00000000E+00  0.00000000E+00  0.00000000E+00
  0.00000000E+00  0.00000000E+00  0.00000000E+00
  0.00000000E+00  0.00000000E+00  0.00000000E+00
  0.00000000E+00  0.00000000E+00  0.00000000E+00
  0.00000000E+00  0.00000000E+00  0.00000000E+00
  0.00000000E+00  0.00000000E+00  0.00000000E+00
  0.00000000E+00  0.00000000E+00  0.00000000E+00
  0.00000000E+00  0.00000000E+00  0.00000000E+00
  0.00000000E+00  0.00000000E+00  0.00000000E+00
  0.00000000E+00  0.00000000E+00  0.00000000E+00
  0.00000000E+00  0.00000000E+00  0.00000000E+00
  0.00000000E+00  0.00000000E+00  0.00000000E+00
  0.00000000E+00  0.00000000E+00  0.00000000E+00
  0.00000000E+00  0.00000000E+00  0.00000000E+00
  0.00000000E+00  0.00000000E+00  0.00000000E+00
  0.00000000E+00  0.00000000E+00  0.00000000E+00
  0.00000000E+00  0.00000000E+00  0.00000000E+00
  0.00000000E+00  0.00000000E+00  0.00000000E+00
  0.00000000E+00  0.00000000E+00  0.00000000E+00
  0.00000000E+00  0.00000000E+00  0.00000000E+00
  0.00000000E+00  0.00000000E+00  0.00000000E+00
  0.00000000E+00  0.00000000E+00  0.00000000E+00
  0.00000000E+00  0.00000000E+00  0.00000000E+00
  0.00000000E+00  0.00000000E+00  0.00000000E+00
  0.00000000E+00  0.00000000E+00  0.00000000E+00
  0.00000000E+00  0.00000000E+00  0.00000000E+00
  0.00000000E+00  0.00000000E+00  0.00000000E+00
  0.00000000E+00  0.00000000E+00  0.00000000E+00
  0.00000000E+00  0.00000000E+00  0.00000000E+00
  0.00000000E+00  0.00000000E+00  0.00000000E+00
  0.00000000E+00  0.00000000E+00  0.00000000E+00
  0.00000000E+00  0.00000000E+00  0.00000000E+00
  0.00000000E+00  0.00000000E+00  0.00000000E+00
  0.00000000E+00  0.00000000E+00  0.00000000E+00
  0.00000000E+00  0.00000000E+00  0.00000000E+00
  0.00000000E+00  0.00000000E+00  0.00000000E+00
  0.00000000E+00  0.00000000E+00  0.00000000E+00
  0.00000000E+00  0.00000000E+00  0.00000000E+00
  0.00000000E+00  0.00000000E+00  0.00000000E+00
  0.00000000E+00  0.00000000E+00  0.00000000E+00
  0.00000000E+00  0.00000000E+00  0.00000000E+00
  0.00000000E+00  0.00000000E+00  0.00000000E+00
  0.00000000E+00  0.00000000E+00  0.00000000E+00
  0.00000000E+00  0.00000000E+00  0.00000000E+00
  0.00000000E+00  0.00000000E+00  0.00000000E+00
  0.00000000E+00  0.00000000E+00  0.00000000E+00
  0.00000000E+00  0.00000000E+00  0.00000000E+00
  0.00000000E+00  0.00000000E+00  0.00000000E+00
  0.00000000E+00  0.00000000E+00  0.00000000E+00
  0.00000000E+00  0.00000000E+00  0.00000000E+00
  0.00000000E+00  0.00000000E+00  0.00000000E+00
  0.00000000E+00  0.00000000E+00  0.00000000E+00
  0.00000000E+00  0.00000000E+00  0.00000000E+00
  0.00000000E+00  0.00000000E+00  0.00000000E+00
  0.00000000E+00  0.00000000E+00  0.00000000E+00
  0.00000000E+00  0.00000000E+00  0.00000000E+00
  0.00000000E+00  0.00000000E+00  0.00000000E+00
  0.00000000E+00  0.00000000E+00  0.00000000E+00
  0.00000000E+00  0.00000000E+00  0.00000000E+00
  0.00000000E+00  0.00000000E+00  0.00000000E+00
  0.00000000E+00  0.00000000E+00  0.00000000E+00
  0.00000000E+00  0.00000000E+00  0.00000000E+00
  0.00000000E+00  0.00000000E+00  0.00000000E+00
  0.00000000E+00  0.00000000E+00  0.00000000E+00
  0.00000000E+00  0.00000000E+00  0.00000000E+00
  0.00000000E+00  0.00000000E+00  0.00000000E+00
  0.00000000E+00  0.00000000E+00  0.00000000E+00
  0.00000000E+00  0.00000000E+00  0.00000000E+00
  0.00000000E+00  0.00000000E+00  0.00000000E+00
  0.00000000E+00  0.00000000E+00  0.00000000E+00
  0.00000000E+00  0.00000000E+00  0.00000000E+00
  0.00000000E+00  0.00000000E+00  0.00000000E+00
  0.00000000E+00  0.00000000E+00  0.00000000E+00
  0.00000000E+00  0.00000000E+00  0.00000000E+00
  0.00000000E+00  0.00000000E+00  0.00000000E+00
  0.00000000E+00  0.00000000E+00  0.00000000E+00
  0.00000000E+00  0.00000000E+00  0.00000000E+00
  0.00000000E+00  0.00000000E+00  0.00000000E+00
  0.00000000E+00  0.00000000E+00  0.00000000E+00
