Automatically generated mesh SCF: 51 to ignore. Kroute: 17,5.4353, 5.4353,6.646963 , GXMGZ
      123
Reciprocal lattice
    0.00000000000000    0.00000000000000    0.00000000000000             1
    0.16666666666667    0.00000000000000    0.00000000000000             4
    0.33333333333333    0.00000000000000    0.00000000000000             4
    0.50000000000000    0.00000000000000    0.00000000000000             4
    0.16666666666667    0.16666666666667    0.00000000000000             2
    0.33333333333333    0.16666666666667    0.00000000000000             4
    0.50000000000000    0.16666666666667    0.00000000000000             4
   -0.33333333333333    0.16666666666667    0.00000000000000             2
   -0.16666666666667    0.16666666666667    0.00000000000000             2
    0.16666666666667    0.33333333333333    0.00000000000000             4
    0.33333333333333    0.33333333333333    0.00000000000000             2
    0.50000000000000    0.33333333333333   -0.00000000000000             4
   -0.33333333333333    0.33333333333333    0.00000000000000             2
   -0.16666666666667    0.33333333333333    0.00000000000000             2
    0.16666666666667    0.50000000000000    0.00000000000000             4
    0.33333333333333    0.50000000000000   -0.00000000000000             4
    0.50000000000000    0.50000000000000    0.00000000000000             2
    0.00000000000000    0.00000000000000    0.25000000000000             2
    0.16666666666667    0.00000000000000    0.25000000000000             4
    0.33333333333333    0.00000000000000    0.25000000000000             4
    0.50000000000000    0.00000000000000    0.25000000000000             4
   -0.33333333333333    0.00000000000000    0.25000000000000             4
   -0.16666666666667    0.00000000000000    0.25000000000000             4
    0.16666666666667    0.16666666666667    0.25000000000000             2
    0.33333333333333    0.16666666666667    0.25000000000000             2
    0.50000000000000    0.16666666666667    0.25000000000000             4
   -0.33333333333333    0.16666666666667    0.25000000000000             2
   -0.16666666666667    0.16666666666667    0.25000000000000             4
    0.16666666666667    0.33333333333333    0.25000000000000             2
    0.33333333333333    0.33333333333333    0.25000000000000             2
    0.50000000000000    0.33333333333333    0.25000000000000             4
   -0.33333333333333    0.33333333333333    0.25000000000000             4
   -0.16666666666667    0.33333333333333    0.25000000000000             2
    0.16666666666667    0.50000000000000    0.25000000000000             4
    0.33333333333333    0.50000000000000    0.25000000000000             4
    0.50000000000000    0.50000000000000    0.25000000000000             2
    0.16666666666667   -0.33333333333333    0.25000000000000             2
   -0.33333333333333   -0.33333333333333    0.25000000000000             2
   -0.16666666666667   -0.33333333333333    0.25000000000000             2
    0.33333333333333   -0.16666666666667    0.25000000000000             2
   -0.33333333333333   -0.16666666666667    0.25000000000000             2
   -0.16666666666667   -0.16666666666667    0.25000000000000             2
    0.00000000000000    0.00000000000000    0.50000000000000             1
    0.16666666666667    0.00000000000000    0.50000000000000             4
    0.33333333333333    0.00000000000000    0.50000000000000             4
    0.16666666666667    0.16666666666667    0.50000000000000             2
   -0.33333333333333    0.16666666666667    0.50000000000000             2
   -0.16666666666667    0.16666666666667    0.50000000000000             2
    0.33333333333333    0.33333333333333    0.50000000000000             2
   -0.33333333333333    0.33333333333333    0.50000000000000             2
   -0.16666666666667    0.33333333333333    0.50000000000000             2
0.00000000  0.00000000  0.00000000   0.00
0.00000000  0.02941176  0.00000000   0.00
0.00000000  0.05882353  0.00000000   0.00
0.00000000  0.08823530  0.00000000   0.00
0.00000000  0.11764706  0.00000000   0.00
0.00000000  0.14705883  0.00000000   0.00
0.00000000  0.17647059  0.00000000   0.00
0.00000000  0.20588236  0.00000000   0.00
0.00000000  0.23529412  0.00000000   0.00
0.00000000  0.26470590  0.00000000   0.00
0.00000000  0.29411766  0.00000000   0.00
0.00000000  0.32352942  0.00000000   0.00
0.00000000  0.35294119  0.00000000   0.00
0.00000000  0.38235295  0.00000000   0.00
0.00000000  0.41176471  0.00000000   0.00
0.00000000  0.44117647  0.00000000   0.00
0.00000000  0.47058824  0.00000000   0.00
0.00000000  0.50000000  0.00000000   0.00
0.02941176  0.50000000  0.00000000   0.00
0.05882353  0.50000000  0.00000000   0.00
0.08823530  0.50000000  0.00000000   0.00
0.11764706  0.50000000  0.00000000   0.00
0.14705883  0.50000000  0.00000000   0.00
0.17647059  0.50000000  0.00000000   0.00
0.20588236  0.50000000  0.00000000   0.00
0.23529412  0.50000000  0.00000000   0.00
0.26470590  0.50000000  0.00000000   0.00
0.29411766  0.50000000  0.00000000   0.00
0.32352942  0.50000000  0.00000000   0.00
0.35294119  0.50000000  0.00000000   0.00
0.38235295  0.50000000  0.00000000   0.00
0.41176471  0.50000000  0.00000000   0.00
0.44117647  0.50000000  0.00000000   0.00
0.47058824  0.50000000  0.00000000   0.00
0.50000000  0.50000000  0.00000000   0.00
0.47916666  0.47916666  0.00000000   0.00
0.45833334  0.45833334  0.00000000   0.00
0.43750000  0.43750000  0.00000000   0.00
0.41666666  0.41666666  0.00000000   0.00
0.39583334  0.39583334  0.00000000   0.00
0.37500000  0.37500000  0.00000000   0.00
0.35416669  0.35416669  0.00000000   0.00
0.33333331  0.33333331  0.00000000   0.00
0.31250000  0.31250000  0.00000000   0.00
0.29166669  0.29166669  0.00000000   0.00
0.27083331  0.27083331  0.00000000   0.00
0.25000000  0.25000000  0.00000000   0.00
0.22916666  0.22916666  0.00000000   0.00
0.20833334  0.20833334  0.00000000   0.00
0.18750000  0.18750000  0.00000000   0.00
0.16666666  0.16666666  0.00000000   0.00
0.14583331  0.14583331  0.00000000   0.00
0.12500000  0.12500000  0.00000000   0.00
0.10416666  0.10416666  0.00000000   0.00
0.08333334  0.08333334  0.00000000   0.00
0.06249997  0.06249997  0.00000000   0.00
0.04166666  0.04166666  0.00000000   0.00
0.02083331  0.02083331  0.00000000   0.00
0.00000000  0.00000000  0.00000000   0.00
0.00000000  0.00000000  0.03846154   0.00
0.00000000  0.00000000  0.07692308   0.00
0.00000000  0.00000000  0.11538462   0.00
0.00000000  0.00000000  0.15384616   0.00
0.00000000  0.00000000  0.19230770   0.00
0.00000000  0.00000000  0.23076925   0.00
0.00000000  0.00000000  0.26923078   0.00
0.00000000  0.00000000  0.30769232   0.00
0.00000000  0.00000000  0.34615386   0.00
0.00000000  0.00000000  0.38461539   0.00
0.00000000  0.00000000  0.42307693   0.00
0.00000000  0.00000000  0.46153849   0.00
0.00000000  0.00000000  0.50000000   0.00
