C N H Pb I                              
   1.00000000000000     
    12.5768374277686394    0.0019159116494978    0.1381987933539664
     0.0011956322447466   12.4575380825249127   -0.0007464134870236
     0.1394107043392118    0.0000890449825412   12.7474206252920563
   C    N    H    Pb   I 
     8     8    48     8    24
Direct
  0.1787969887532839  0.2498323961126019  0.2572569672664073
  0.7151912760720123  0.2499841541160066  0.2005737414146864
  0.2151912760720123  0.7499841541160066  0.2005737414146864
  0.6787969887532839  0.7498323961126019  0.2572569672664073
  0.1787969887532839  0.2498323961126019  0.7572569672664073
  0.7151912760720123  0.2499841541160066  0.7005737414146864
  0.2151912760720123  0.7499841541160066  0.7005737414146864
  0.6787969887532839  0.7498323961126019  0.7572569672664073
  0.2995295331092436  0.2499460734550993  0.2722812005631283
  0.8095449047241914  0.2500612077780673  0.2754873923854788
  0.3095449047241914  0.7500612077780673  0.2754873923854788
  0.7995295331092436  0.7499460734550993  0.2722812005631283
  0.2995295331092436  0.2499460734550993  0.7722812005631283
  0.8095449047241843  0.2500612077780673  0.7754873923854788
  0.3095449047241843  0.7500612077780673  0.7754873923854788
  0.7995295331092436  0.7499460734550993  0.7722812005631283
  0.1622573373062437  0.2498235086430896  0.1695084041650787
  0.7478929971672628  0.2498186840049712  0.1162688477283496
  0.2478929971672628  0.7498186840049712  0.1162688477283496
  0.6622573373062437  0.7498235086430896  0.1695084041650787
  0.1622573373062437  0.2498235086430896  0.6695084041650787
  0.7478929971672628  0.2498186840049712  0.6162688477283496
  0.2478929971672628  0.7498186840049712  0.6162688477283496
  0.6622573373062437  0.7498235086430896  0.6695084041650787
  0.1429639714971316  0.3220691021301434  0.2952250380991757
  0.6657116418597155  0.3226352712506113  0.2158056003934590
  0.1657116418597155  0.8226352712506113  0.2158056003934590
  0.6429639714971316  0.8220691021301434  0.2952250380991757
  0.1429639714971316  0.3220691021301434  0.7952250380991757
  0.6657116418597155  0.3226352712506113  0.7158056003934590
  0.1657116418597155  0.8226352712506113  0.7158056003934590
  0.6429639714971316  0.8220691021301434  0.7952250380991757
  0.1431845211043807  0.1775195355079191  0.2952262534296892
  0.6657011461740865  0.1774326114424056  0.2160751599909361
  0.1657011461740865  0.6774326114424056  0.2160751599909361
  0.6431845211043736  0.6775195355079191  0.2952262534296892
  0.1431845211043807  0.1775195355079191  0.7952262534296892
  0.6657011461740865  0.1774326114424056  0.7160751599909361
  0.1657011461740865  0.6774326114424056  0.7160751599909361
  0.6431845211043736  0.6775195355079191  0.7952262534296892
  0.3373650658405722  0.3172673990785171  0.2372264214433741
  0.8589040889128370  0.3184811667359284  0.2642865605231037
  0.3589040889128370  0.8184811667359213  0.2642865605231037
  0.8373650658405722  0.8172673990785171  0.2372264214433741
  0.3373650658405722  0.3172673990785171  0.7372264214433741
  0.8589040889128370  0.3184811667359284  0.7642865605231037
  0.3589040889128370  0.8184811667359213  0.7642865605231037
  0.8373650658405722  0.8172673990785171  0.7372264214433741
  0.3375479860181159  0.1826856779502037  0.2372208885031100
  0.8588626144889631  0.1815240969924616  0.2645609111520173
  0.3588626144889631  0.6815240969924616  0.2645609111520173
  0.8375479860181159  0.6826856779502037  0.2372208885031100
  0.3375479860181159  0.1826856779502037  0.7372208885031100
  0.8588626144889631  0.1815240969924616  0.7645609111520173
  0.3588626144889631  0.6815240969924616  0.7645609111520173
  0.8375479860181159  0.6826856779502037  0.7372208885031100
  0.3236053260132437  0.2499362156672333  0.3547985155330338
  0.7827348199327844  0.2502508277717084  0.3564199738066307
  0.2827348199327844  0.7502508277717084  0.3564199738066307
  0.8236053260132437  0.7499362156672333  0.3547985155330338
  0.3236053260132437  0.2499362156672333  0.8547985155330338
  0.7827348199327844  0.2502508277717084  0.8564199738066307
  0.2827348199327844  0.7502508277717084  0.8564199738066307
  0.8236053260132437  0.7499362156672333  0.8547985155330338
  0.4724258235666099  0.4970224453546521  0.4888154024260913
  0.9724577283911131  0.5029571443752161  0.4888074916035166
  0.4724577283911131  0.0029571443752161  0.4888074916035166
  0.9724258235666099  0.9970224453546521  0.4888154024260913
  0.4724258235666099  0.4970224453546521  0.9888154024260913
  0.9724577283911131  0.5029571443752161  0.9888074916035166
  0.4724577283911131  0.0029571443752161  0.9888074916035166
  0.9724258235666099  0.9970224453546521  0.9888154024260913
  0.4546994563223308  0.4984110430683799  0.2375821457259804
  0.9547878923374711  0.5015710559562478  0.2375633381910092
  0.4547878923374711  0.0015710559562478  0.2375633381910092
  0.9546994563223308  0.9984110430683799  0.2375821457259804
  0.4546994563223308  0.4984110430683799  0.7375821457259804
  0.9547878923374711  0.5015710559562478  0.7375633381910092
  0.4547878923374711  0.0015710559562478  0.7375633381910092
  0.9546994563223308  0.9984110430683799  0.7375821457259804
  0.3924747945370584  0.2499903019815264  0.0225740264533201
  0.0067960845907322  0.2499677191095557  0.0010904090150987
  0.5067960845907322  0.7499677191095557  0.0010904090150987
  0.8924747945370584  0.7499903019815264  0.0225740264533201
  0.3924747945370584  0.2499903019815264  0.5225740264533201
  0.0067960845907322  0.2499677191095557  0.5010904090150987
  0.5067960845907322  0.7499677191095557  0.5010904090150987
  0.8924747945370584  0.7499903019815264  0.5225740264533201
  0.2161576404703069  0.5682224843056645  0.4612397120310163
  0.7161852364102685  0.4317723884118791  0.4612396916562034
  0.2161852364102685  0.9317723884118791  0.4612396916562034
  0.7161576404703069  0.0682224843056645  0.4612397120310163
  0.2161576404703069  0.5682224843056645  0.9612397120310163
  0.7161852364102685  0.4317723884118791  0.9612396916561963
  0.2161852364102685  0.9317723884118791  0.9612396916562034
  0.7161576404703069  0.0682224843056645  0.9612397120310163
 
  0.00000000E+00  0.00000000E+00  0.00000000E+00
  0.00000000E+00  0.00000000E+00  0.00000000E+00
  0.00000000E+00  0.00000000E+00  0.00000000E+00
  0.00000000E+00  0.00000000E+00  0.00000000E+00
  0.00000000E+00  0.00000000E+00  0.00000000E+00
  0.00000000E+00  0.00000000E+00  0.00000000E+00
  0.00000000E+00  0.00000000E+00  0.00000000E+00
  0.00000000E+00  0.00000000E+00  0.00000000E+00
  0.00000000E+00  0.00000000E+00  0.00000000E+00
  0.00000000E+00  0.00000000E+00  0.00000000E+00
  0.00000000E+00  0.00000000E+00  0.00000000E+00
  0.00000000E+00  0.00000000E+00  0.00000000E+00
  0.00000000E+00  0.00000000E+00  0.00000000E+00
  0.00000000E+00  0.00000000E+00  0.00000000E+00
  0.00000000E+00  0.00000000E+00  0.00000000E+00
  0.00000000E+00  0.00000000E+00  0.00000000E+00
  0.00000000E+00  0.00000000E+00  0.00000000E+00
  0.00000000E+00  0.00000000E+00  0.00000000E+00
  0.00000000E+00  0.00000000E+00  0.00000000E+00
  0.00000000E+00  0.00000000E+00  0.00000000E+00
  0.00000000E+00  0.00000000E+00  0.00000000E+00
  0.00000000E+00  0.00000000E+00  0.00000000E+00
  0.00000000E+00  0.00000000E+00  0.00000000E+00
  0.00000000E+00  0.00000000E+00  0.00000000E+00
  0.00000000E+00  0.00000000E+00  0.00000000E+00
  0.00000000E+00  0.00000000E+00  0.00000000E+00
  0.00000000E+00  0.00000000E+00  0.00000000E+00
  0.00000000E+00  0.00000000E+00  0.00000000E+00
  0.00000000E+00  0.00000000E+00  0.00000000E+00
  0.00000000E+00  0.00000000E+00  0.00000000E+00
  0.00000000E+00  0.00000000E+00  0.00000000E+00
  0.00000000E+00  0.00000000E+00  0.00000000E+00
  0.00000000E+00  0.00000000E+00  0.00000000E+00
  0.00000000E+00  0.00000000E+00  0.00000000E+00
  0.00000000E+00  0.00000000E+00  0.00000000E+00
  0.00000000E+00  0.00000000E+00  0.00000000E+00
  0.00000000E+00  0.00000000E+00  0.00000000E+00
  0.00000000E+00  0.00000000E+00  0.00000000E+00
  0.00000000E+00  0.00000000E+00  0.00000000E+00
  0.00000000E+00  0.00000000E+00  0.00000000E+00
  0.00000000E+00  0.00000000E+00  0.00000000E+00
  0.00000000E+00  0.00000000E+00  0.00000000E+00
  0.00000000E+00  0.00000000E+00  0.00000000E+00
  0.00000000E+00  0.00000000E+00  0.00000000E+00
  0.00000000E+00  0.00000000E+00  0.00000000E+00
  0.00000000E+00  0.00000000E+00  0.00000000E+00
  0.00000000E+00  0.00000000E+00  0.00000000E+00
  0.00000000E+00  0.00000000E+00  0.00000000E+00
  0.00000000E+00  0.00000000E+00  0.00000000E+00
  0.00000000E+00  0.00000000E+00  0.00000000E+00
  0.00000000E+00  0.00000000E+00  0.00000000E+00
  0.00000000E+00  0.00000000E+00  0.00000000E+00
  0.00000000E+00  0.00000000E+00  0.00000000E+00
  0.00000000E+00  0.00000000E+00  0.00000000E+00
  0.00000000E+00  0.00000000E+00  0.00000000E+00
  0.00000000E+00  0.00000000E+00  0.00000000E+00
  0.00000000E+00  0.00000000E+00  0.00000000E+00
  0.00000000E+00  0.00000000E+00  0.00000000E+00
  0.00000000E+00  0.00000000E+00  0.00000000E+00
  0.00000000E+00  0.00000000E+00  0.00000000E+00
  0.00000000E+00  0.00000000E+00  0.00000000E+00
  0.00000000E+00  0.00000000E+00  0.00000000E+00
  0.00000000E+00  0.00000000E+00  0.00000000E+00
  0.00000000E+00  0.00000000E+00  0.00000000E+00
  0.00000000E+00  0.00000000E+00  0.00000000E+00
  0.00000000E+00  0.00000000E+00  0.00000000E+00
  0.00000000E+00  0.00000000E+00  0.00000000E+00
  0.00000000E+00  0.00000000E+00  0.00000000E+00
  0.00000000E+00  0.00000000E+00  0.00000000E+00
  0.00000000E+00  0.00000000E+00  0.00000000E+00
  0.00000000E+00  0.00000000E+00  0.00000000E+00
  0.00000000E+00  0.00000000E+00  0.00000000E+00
  0.00000000E+00  0.00000000E+00  0.00000000E+00
  0.00000000E+00  0.00000000E+00  0.00000000E+00
  0.00000000E+00  0.00000000E+00  0.00000000E+00
  0.00000000E+00  0.00000000E+00  0.00000000E+00
  0.00000000E+00  0.00000000E+00  0.00000000E+00
  0.00000000E+00  0.00000000E+00  0.00000000E+00
  0.00000000E+00  0.00000000E+00  0.00000000E+00
  0.00000000E+00  0.00000000E+00  0.00000000E+00
  0.00000000E+00  0.00000000E+00  0.00000000E+00
  0.00000000E+00  0.00000000E+00  0.00000000E+00
  0.00000000E+00  0.00000000E+00  0.00000000E+00
  0.00000000E+00  0.00000000E+00  0.00000000E+00
  0.00000000E+00  0.00000000E+00  0.00000000E+00
  0.00000000E+00  0.00000000E+00  0.00000000E+00
  0.00000000E+00  0.00000000E+00  0.00000000E+00
  0.00000000E+00  0.00000000E+00  0.00000000E+00
  0.00000000E+00  0.00000000E+00  0.00000000E+00
  0.00000000E+00  0.00000000E+00  0.00000000E+00
  0.00000000E+00  0.00000000E+00  0.00000000E+00
  0.00000000E+00  0.00000000E+00  0.00000000E+00
  0.00000000E+00  0.00000000E+00  0.00000000E+00
  0.00000000E+00  0.00000000E+00  0.00000000E+00
  0.00000000E+00  0.00000000E+00  0.00000000E+00
  0.00000000E+00  0.00000000E+00  0.00000000E+00
