C N H Pb I
   1.0
    12.5768374277686394    0.0019159116494978    0.1381987933539664
     0.0011956322447466   12.4575380825249127   -0.0007464134870236
     0.1394107043392118    0.0000890449825412   12.7474206252920563
   8    8   48    8   24
Direct
  0.1787969887532859  0.2498323961126001  0.2572569672664059
  0.7151912760720101  0.2499841541160084  0.2005737414146879
  0.2151912760720101  0.7499841541160084  0.2005737414146879
  0.6787969887532859  0.7498323961126002  0.2572569672664059
  0.1787969887532859  0.2498323961126001  0.7572569672664059
  0.7151912760720102  0.2499841541160084  0.7005737414146879
  0.2151912760720101  0.7499841541160084  0.7005737414146879
  0.6787969887532859  0.7498323961126001  0.7572569672664059
  0.2995295331092470  0.2499460734550998  0.2722812005631294
  0.8095449047241878  0.2500612077780668  0.2754873923854778
  0.3095449047241879  0.7500612077780667  0.2754873923854778
  0.7995295331092470  0.7499460734550998  0.2722812005631293
  0.2995295331092469  0.2499460734550998  0.7722812005631293
  0.8095449047241877  0.2500612077780668  0.7754873923854777
  0.3095449047241878  0.7500612077780667  0.7754873923854777
  0.7995295331092467  0.7499460734550999  0.7722812005631294
  0.1622573373062461  0.2498235086430918  0.1695084041650822
  0.7478929971672601  0.2498186840049690  0.1162688477283461
  0.2478929971672602  0.7498186840049689  0.1162688477283461
  0.6622573373062459  0.7498235086430919  0.1695084041650822
  0.1622573373062461  0.2498235086430918  0.6695084041650821
  0.7478929971672602  0.2498186840049690  0.6162688477283462
  0.2478929971672602  0.7498186840049689  0.6162688477283462
  0.6622573373062459  0.7498235086430918  0.6695084041650822
  0.1429639714971345  0.3220691021301459  0.2952250380991766
  0.6657116418597123  0.3226352712506086  0.2158056003934581
  0.1657116418597126  0.8226352712506086  0.2158056003934581
  0.6429639714971346  0.8220691021301461  0.2952250380991766
  0.1429639714971344  0.3220691021301459  0.7952250380991767
  0.6657116418597123  0.3226352712506087  0.7158056003934580
  0.1657116418597126  0.8226352712506088  0.7158056003934580
  0.6429639714971346  0.8220691021301461  0.7952250380991767
  0.1431845211043772  0.1775195355079194  0.2952262534296905
  0.6657011461740898  0.1774326114424053  0.2160751599909349
  0.1657011461740900  0.6774326114424052  0.2160751599909349
  0.6431845211043770  0.6775195355079193  0.2952262534296904
  0.1431845211043773  0.1775195355079194  0.7952262534296904
  0.6657011461740898  0.1774326114424053  0.7160751599909349
  0.1657011461740899  0.6774326114424052  0.7160751599909349
  0.6431845211043771  0.6775195355079193  0.7952262534296904
  0.3373650658405712  0.3172673990785204  0.2372264214433714
  0.8589040889128378  0.3184811667359250  0.2642865605231065
  0.3589040889128379  0.8184811667359249  0.2642865605231064
  0.8373650658405711  0.8172673990785205  0.2372264214433715
  0.3373650658405713  0.3172673990785204  0.7372264214433714
  0.8589040889128378  0.3184811667359250  0.7642865605231065
  0.3589040889128379  0.8184811667359249  0.7642865605231065
  0.8373650658405710  0.8172673990785204  0.7372264214433714
  0.3375479860181154  0.1826856779502048  0.2372208885031131
  0.8588626144889632  0.1815240969924606  0.2645609111520141
  0.3588626144889634  0.6815240969924605  0.2645609111520141
  0.8375479860181153  0.6826856779502047  0.2372208885031131
  0.3375479860181155  0.1826856779502047  0.7372208885031132
  0.8588626144889631  0.1815240969924606  0.7645609111520142
  0.3588626144889634  0.6815240969924606  0.7645609111520141
  0.8375479860181153  0.6826856779502047  0.7372208885031132
  0.3236053260132465  0.2499362156672320  0.3547985155330369
  0.7827348199327814  0.2502508277717097  0.3564199738066275
  0.2827348199327814  0.7502508277717096  0.3564199738066274
  0.8236053260132464  0.7499362156672320  0.3547985155330369
  0.3236053260132466  0.2499362156672320  0.8547985155330370
  0.7827348199327814  0.2502508277717096  0.8564199738066275
  0.2827348199327814  0.7502508277717097  0.8564199738066275
  0.8236053260132463  0.7499362156672320  0.8547985155330371
  0.4724258235666118  0.4970224453546536  0.4888154024260917
  0.9724577283911109  0.5029571443752145  0.4888074916035162
  0.4724577283911111  0.0029571443752145  0.4888074916035162
  0.9724258235666117  0.9970224453546536  0.4888154024260917
  0.4724258235666118  0.4970224453546536  0.9888154024260918
  0.9724577283911109  0.5029571443752145  0.9888074916035162
  0.4724577283911111  0.0029571443752145  0.9888074916035162
  0.9724258235666117  0.9970224453546536  0.9888154024260918
  0.4546994563223330  0.4984110430683783  0.2375821457259835
  0.9547878923374686  0.5015710559562493  0.2375633381910060
  0.4547878923374687  0.0015710559562492  0.2375633381910059
  0.9546994563223328  0.9984110430683784  0.2375821457259836
  0.4546994563223329  0.4984110430683784  0.7375821457259835
  0.9547878923374686  0.5015710559562494  0.7375633381910059
  0.4547878923374687  0.0015710559562494  0.7375633381910059
  0.9546994563223328  0.9984110430683784  0.7375821457259835
  0.3924747945370595  0.2499903019815256  0.0225740264533235
  0.0067960845907309  0.2499677191095566  0.0010904090150953
  0.5067960845907309  0.7499677191095564  0.0010904090150953
  0.8924747945370594  0.7499903019815255  0.0225740264533235
  0.3924747945370595  0.2499903019815255  0.5225740264533235
  0.0067960845907309  0.2499677191095565  0.5010904090150953
  0.5067960845907309  0.7499677191095564  0.5010904090150953
  0.8924747945370594  0.7499903019815256  0.5225740264533235
  0.2161576404703064  0.5682224843056612  0.4612397120310129
  0.7161852364102689  0.4317723884118823  0.4612396916561998
  0.2161852364102690  0.9317723884118820  0.4612396916561998
  0.7161576404703063  0.0682224843056614  0.4612397120310129
  0.2161576404703064  0.5682224843056614  0.9612397120310130
  0.7161852364102690  0.4317723884118823  0.9612396916561997
  0.2161852364102690  0.9317723884118820  0.9612396916561998
  0.7161576404703063  0.0682224843056611  0.9612397120310130
