Automatically generated mesh SCF: 16 steps, 16 , dim: 4.584*3, route:GX
32
Reciprocal lattice
    0.00000000000000    0.00000000000000    0.00000000000000             1
    0.16666666666667    0.00000000000000    0.00000000000000             8
    0.33333333333333    0.00000000000000    0.00000000000000             8
    0.50000000000000    0.00000000000000    0.00000000000000             4
    0.16666666666667    0.16666666666667    0.00000000000000             6
    0.33333333333333    0.16666666666667    0.00000000000000            24
    0.50000000000000    0.16666666666667    0.00000000000000            24
   -0.33333333333333    0.16666666666667    0.00000000000000            24
   -0.16666666666667    0.16666666666667    0.00000000000000            12
    0.33333333333333    0.33333333333333    0.00000000000000             6
    0.50000000000000    0.33333333333333    0.00000000000000            24
   -0.33333333333333    0.33333333333333    0.00000000000000            12
    0.50000000000000    0.50000000000000    0.00000000000000             3
    0.50000000000000    0.33333333333333    0.16666666666667            24
   -0.33333333333333    0.33333333333333    0.16666666666667            24
   -0.33333333333333    0.50000000000000    0.16666666666667            12
0.00000000  0.00000000  0.00000000   0.00
0.03125000  0.00000000  0.03125000   0.00
0.06250000  0.00000000  0.06250000   0.00
0.09375000  0.00000000  0.09375000   0.00
0.12500000  0.00000000  0.12500000   0.00
0.15625000  0.00000000  0.15625000   0.00
0.18750000  0.00000000  0.18750000   0.00
0.21875001  0.00000000  0.21875001   0.00
0.25000000  0.00000000  0.25000000   0.00
0.28125000  0.00000000  0.28125000   0.00
0.31250000  0.00000000  0.31250000   0.00
0.34375000  0.00000000  0.34375000   0.00
0.37500000  0.00000000  0.37500000   0.00
0.40624997  0.00000000  0.40624997   0.00
0.43750003  0.00000000  0.43750003   0.00
0.46875000  0.00000000  0.46875000   0.00
0.50000000  0.00000000  0.50000000   0.00
