C N H Pb I
   1.0
    12.5768374277686394    0.0019159116494978    0.1381987933539664
     0.0011956322447466   12.4575380825249127   -0.0007464134870236
     0.1394107043392118    0.0000890449825412   12.7474206252920563
   8    8   48    8   24
Direct
  0.1824364174851583  0.2498475719129409  0.2515886446812342
  0.7115518473401378  0.2499689783156675  0.2062420639998598
  0.2115518473401377  0.7499689783156676  0.2062420639998597
  0.6824364174851582  0.7498475719129409  0.2515886446812342
  0.1824364174851583  0.2498475719129409  0.7515886446812341
  0.7115518473401377  0.2499689783156676  0.7062420639998598
  0.2115518473401377  0.7499689783156676  0.7062420639998598
  0.6824364174851583  0.7498475719129409  0.7515886446812341
  0.3005310702707411  0.2499575868873965  0.2726018197453642
  0.8085433675626938  0.2500496943457701  0.2751667732032430
  0.3085433675626938  0.7500496943457700  0.2751667732032430
  0.8005310702707409  0.7499575868873966  0.2726018197453642
  0.3005310702707411  0.2499575868873965  0.7726018197453641
  0.8085433675626937  0.2500496943457701  0.7751667732032429
  0.3085433675626938  0.7500496943457701  0.7751667732032429
  0.8005310702707408  0.7499575868873964  0.7726018197453641
  0.1708209032923476  0.2498230261792796  0.1641844485214086
  0.7393294311811587  0.2498191664687812  0.1215928033720197
  0.2393294311811588  0.7498191664687811  0.1215928033720197
  0.6708209032923476  0.7498230261792795  0.1641844485214086
  0.1708209032923476  0.2498230261792796  0.6641844485214085
  0.7393294311811588  0.2498191664687812  0.6215928033720198
  0.2393294311811588  0.7498191664687812  0.6215928033720198
  0.6708209032923473  0.7498230261792794  0.6641844485214086
  0.1452387385333923  0.3221257190421922  0.2872830943286048
  0.6634368748234548  0.3225786543385624  0.2237475441640299
  0.1634368748234548  0.8225786543385624  0.2237475441640299
  0.6452387385333923  0.8221257190421923  0.2872830943286047
  0.1452387385333923  0.3221257190421922  0.7872830943286049
  0.6634368748234547  0.3225786543385624  0.7237475441640299
  0.1634368748234548  0.8225786543385625  0.7237475441640299
  0.6452387385333921  0.8221257190421923  0.7872830943286048
  0.1454361836113485  0.1775108431013679  0.2873111440858149
  0.6634494836671184  0.1774413038489567  0.2239902693348104
  0.1634494836671186  0.6774413038489566  0.2239902693348104
  0.6454361836113484  0.6775108431013679  0.2873111440858149
  0.1454361836113485  0.1775108431013680  0.7873111440858149
  0.6634494836671185  0.1774413038489567  0.7239902693348104
  0.1634494836671187  0.6774413038489567  0.7239902693348104
  0.6454361836113485  0.6775108431013679  0.7873111440858149
  0.3395189681477979  0.3173887758442609  0.2399324353513450
  0.8567501866056111  0.3183597899701845  0.2615805466151330
  0.3567501866056112  0.8183597899701844  0.2615805466151329
  0.8395189681477979  0.8173887758442610  0.2399324353513450
  0.3395189681477980  0.3173887758442609  0.7399324353513448
  0.8567501866056109  0.3183597899701845  0.7615805466151330
  0.3567501866056112  0.8183597899701843  0.7615805466151330
  0.8395189681477977  0.8173887758442610  0.7399324353513449
  0.3396794488652002  0.1825695198544303  0.2399548907680032
  0.8567311516418784  0.1816402550882350  0.2618269088871240
  0.3567311516418786  0.6816402550882351  0.2618269088871240
  0.8396794488652001  0.6825695198544303  0.2399548907680032
  0.3396794488652002  0.1825695198544303  0.7399548907680032
  0.8567311516418784  0.1816402550882350  0.7618269088871240
  0.3567311516418787  0.6816402550882350  0.7618269088871240
  0.8396794488652001  0.6825695198544303  0.7399548907680032
  0.3195182754052000  0.2499676768776797  0.3549606613603960
  0.7868218705408279  0.2502193665612619  0.3562578279792684
  0.2868218705408279  0.7502193665612619  0.3562578279792684
  0.8195182754052001  0.7499676768776798  0.3549606613603961
  0.3195182754052001  0.2499676768776797  0.8549606613603961
  0.7868218705408278  0.2502193665612619  0.8562578279792684
  0.2868218705408279  0.7502193665612620  0.8562578279792684
  0.8195182754051998  0.7499676768776798  0.8549606613603962
  0.4724290140490618  0.4976159152567097  0.4888146113438341
  0.9724545379086610  0.5023636744731586  0.4888082826857737
  0.4724545379086612  0.0023636744731583  0.4888082826857738
  0.9724290140490616  0.9976159152567097  0.4888146113438342
  0.4724290140490617  0.4976159152567096  0.9888146113438342
  0.9724545379086611  0.5023636744731584  0.9888082826857738
  0.4724545379086612  0.0023636744731586  0.9888082826857738
  0.9724290140490616  0.9976159152567098  0.9888146113438343
  0.4547082999238466  0.4987270443571655  0.2375802649724858
  0.9547790487359549  0.5012550546674622  0.2375652189445038
  0.4547790487359552  0.0012550546674623  0.2375652189445038
  0.9547082999238464  0.9987270443571653  0.2375802649724858
  0.4547082999238465  0.4987270443571654  0.7375802649724856
  0.9547790487359550  0.5012550546674622  0.7375652189445038
  0.4547790487359551  0.0012550546674623  0.7375652189445038
  0.9547082999238465  0.9987270443571653  0.7375802649724857
  0.4039069235424266  0.2499880436943286  0.0204256647095007
  0.9953639555853637  0.2499699773967535  0.0032387707589181
  0.4953639555853637  0.7499699773967533  0.0032387707589181
  0.9039069235424264  0.7499880436943287  0.0204256647095007
  0.4039069235424266  0.2499880436943286  0.5204256647095006
  0.9953639555853636  0.2499699773967534  0.5032387707589181
  0.4953639555853636  0.7499699773967533  0.5032387707589181
  0.9039069235424265  0.7499880436943286  0.5204256647095007
  0.2161604000643026  0.5545774747162834  0.4612397099935315
  0.7161824768162725  0.4454173980012601  0.4612396936936811
  0.2161824768162728  0.9454173980012599  0.4612396936936811
  0.7161604000643026  0.0545774747162833  0.4612397099935315
  0.2161604000643027  0.5545774747162835  0.9612397099935316
  0.7161824768162726  0.4454173980012601  0.9612396936936809
  0.2161824768162727  0.9454173980012600  0.9612396936936811
  0.7161604000643026  0.0545774747162833  0.9612397099935317
