C N H Pb I                              
   1.00000000000000     
    12.5768374277686394    0.0019159116494978    0.1381987933539664
     0.0011956322447466   12.4575380825249127   -0.0007464134870236
     0.1394107043392118    0.0000890449825412   12.7474206252920563
   C    N    H    Pb   I 
     8     8    48     8    24
Direct
  0.1971013586652575  0.2498998295640220  0.2288668892177768
  0.6968869061600387  0.2499167206645865  0.2289638194633170
  0.1968869061600387  0.7499167206645865  0.2289638194633170
  0.6971013586652575  0.7498998295640220  0.2288668892177768
  0.1968869061600387  0.2499167206645865  0.7289638194633170
  0.6971013586652575  0.2498998295640220  0.7288668892177768
  0.1971013586652575  0.7498998295640220  0.7288668892177768
  0.6968869061600387  0.7499167206645865  0.7289638194633170
  0.3055286493246356  0.2499982152785662  0.2718476228479645
  0.8035457885087993  0.2500090659546004  0.2759209701006426
  0.3035457885087993  0.7500090659546004  0.2759209701006426
  0.8055286493246356  0.7499982152785662  0.2718476228479645
  0.3035457885087993  0.2500090659546004  0.7759209701006426
  0.8055286493246356  0.2499982152785662  0.7718476228479645
  0.3055286493246356  0.7499982152785662  0.7718476228479645
  0.8035457885087993  0.7500090659546004  0.7759209701006426
  0.2035371418665335  0.2498126932301830  0.1427232085350312
  0.7066131926069659  0.2498294994178778  0.1430540433583971
  0.2066131926069730  0.7498294994178778  0.1430540433583971
  0.7035371418665335  0.7498126932301830  0.1427232085350312
  0.2066131926069730  0.2498294994178778  0.6430540433583900
  0.7035371418665335  0.2498126932301830  0.6427232085350312
  0.2035371418665335  0.7498126932301830  0.6427232085350312
  0.7066131926069659  0.7498294994178778  0.6430540433583971
  0.1548987387136904  0.3223315893589174  0.2562150558125182
  0.6537768746431567  0.3223727840218373  0.2548155826801164
  0.1537768746431567  0.8223727840218373  0.2548155826801164
  0.6548987387136904  0.8223315893589174  0.2562150558125182
  0.1537768746431567  0.3223727840218373  0.7548155826801164
  0.6548987387136904  0.3223315893589174  0.7562150558125182
  0.1548987387136904  0.8223315893589174  0.7562150558125182
  0.6537768746431567  0.8223727840218373  0.7548155826801164
  0.1550108851317944  0.1774769312007649  0.2563487494464454
  0.6538747821466728  0.1774752157495598  0.2549526639741799
  0.1538747821466728  0.6774752157495598  0.2549526639741799
  0.6550108851317944  0.6774769312007649  0.2563487494464454
  0.1538747821466728  0.1774752157495598  0.7549526639741799
  0.6550108851317944  0.1774769312007649  0.7563487494464454
  0.1550108851317944  0.6774769312007649  0.7563487494464454
  0.6538747821466728  0.6774752157495598  0.7549526639741799
  0.3487335440068478  0.3178582824333418  0.2479761752897147
  0.8475356107465615  0.3178902833811037  0.2535368066767703
  0.3475356107465615  0.8178902833811037  0.2535368066767631
  0.8487335440068478  0.8178582824333418  0.2479761752897147
  0.3475356107465615  0.3178902833811037  0.7535368066767631
  0.8487335440068478  0.3178582824333418  0.7479761752897147
  0.3487335440068478  0.8178582824333418  0.7479761752897076
  0.8475356107465615  0.8178902833811037  0.7535368066767631
  0.3488127496652567  0.1821159855991183  0.2481031382433798
  0.8475978508418223  0.1820937893435470  0.2536786614117474
  0.3475978508418223  0.6820937893435470  0.2536786614117474
  0.8488127496652567  0.6821159855991183  0.2481031382433798
  0.3475978508418223  0.1820937893435470  0.7536786614117474
  0.8488127496652567  0.1821159855991183  0.7481031382433798
  0.3488127496652567  0.6821159855991183  0.7481031382433798
  0.8475978508418223  0.6820937893435470  0.7536786614117474
  0.3058528582211224  0.2500823524586480  0.3536345380513524
  0.8004872877249056  0.2501046909802938  0.3575839512883121
  0.3004872877249056  0.7501046909802938  0.3575839512883121
  0.8058528582211224  0.7500823524586480  0.3536345380513524
  0.3004872877249056  0.2501046909802938  0.8575839512883121
  0.8058528582211224  0.2500823524586480  0.8536345380513524
  0.3058528582211224  0.7500823524586480  0.8536345380513524
  0.8004872877249056  0.7501046909803009  0.8575839512883121
  0.4724412614883704  0.4997248560814356  0.4888107423597248
  0.9724422904693526  0.5002547336484326  0.4888121516698831
  0.4724422904693526  0.0002547336484326  0.4888121516698831
  0.9724412614883633  0.9997248560814356  0.4888107423597248
  0.4724422904693526  0.5002547336484326  0.9888121516698831
  0.9724412614883704  0.4997248560814356  0.9888107423597248
  0.4724412614883704  0.9997248560814356  0.9888107423597248
  0.9724422904693526  0.0002547336484326  0.9888121516698831
  0.4547374886499895  0.5005394877531515  0.2375730553859370
  0.9547498600098123  0.4994426112714763  0.2375724285310525
  0.4547498600098123  0.9994426112714763  0.2375724285310525
  0.9547374886499895  0.0005394877531515  0.2375730553859370
  0.4547498600098123  0.4994426112714763  0.7375724285310525
  0.9547374886499824  0.5005394877531515  0.7375730553859370
  0.4547374886499895  0.0005394877531515  0.7375730553859370
  0.9547498600098123  0.9994426112714763  0.7375724285310525
  0.4537018748937882  0.2499780337493718  0.0116505458840450
  0.9455690042340024  0.2499799873417103  0.0120138895843738
  0.4455690042340024  0.7499799873417103  0.0120138895843738
  0.9537018748937882  0.7499780337493718  0.0116505458840450
  0.4455690042340024  0.2499799873417103  0.5120138895843738
  0.9537018748937882  0.2499780337493718  0.5116505458840450
  0.4537018748937882  0.7499780337493718  0.5116505458840450
  0.9455690042340024  0.7499799873417103  0.5120138895843738
  0.2161704306891252  0.5046620688357208  0.4612445718866596
  0.7161724461914503  0.4953328038818228  0.4612348318005530
  0.2161724461914503  0.9953328038818228  0.4612348318005530
  0.7161704306891252  0.0046620688357208  0.4612445718866596
  0.2161724461914503  0.4953328038818228  0.9612348318005530
  0.7161704306891252  0.5046620688357208  0.9612445718866596
  0.2161704306891252  0.0046620688357208  0.9612445718866596
  0.7161724461914503  0.9953328038818228  0.9612348318005530
 
  0.00000000E+00  0.00000000E+00  0.00000000E+00
  0.00000000E+00  0.00000000E+00  0.00000000E+00
  0.00000000E+00  0.00000000E+00  0.00000000E+00
  0.00000000E+00  0.00000000E+00  0.00000000E+00
  0.00000000E+00  0.00000000E+00  0.00000000E+00
  0.00000000E+00  0.00000000E+00  0.00000000E+00
  0.00000000E+00  0.00000000E+00  0.00000000E+00
  0.00000000E+00  0.00000000E+00  0.00000000E+00
  0.00000000E+00  0.00000000E+00  0.00000000E+00
  0.00000000E+00  0.00000000E+00  0.00000000E+00
  0.00000000E+00  0.00000000E+00  0.00000000E+00
  0.00000000E+00  0.00000000E+00  0.00000000E+00
  0.00000000E+00  0.00000000E+00  0.00000000E+00
  0.00000000E+00  0.00000000E+00  0.00000000E+00
  0.00000000E+00  0.00000000E+00  0.00000000E+00
  0.00000000E+00  0.00000000E+00  0.00000000E+00
  0.00000000E+00  0.00000000E+00  0.00000000E+00
  0.00000000E+00  0.00000000E+00  0.00000000E+00
  0.00000000E+00  0.00000000E+00  0.00000000E+00
  0.00000000E+00  0.00000000E+00  0.00000000E+00
  0.00000000E+00  0.00000000E+00  0.00000000E+00
  0.00000000E+00  0.00000000E+00  0.00000000E+00
  0.00000000E+00  0.00000000E+00  0.00000000E+00
  0.00000000E+00  0.00000000E+00  0.00000000E+00
  0.00000000E+00  0.00000000E+00  0.00000000E+00
  0.00000000E+00  0.00000000E+00  0.00000000E+00
  0.00000000E+00  0.00000000E+00  0.00000000E+00
  0.00000000E+00  0.00000000E+00  0.00000000E+00
  0.00000000E+00  0.00000000E+00  0.00000000E+00
  0.00000000E+00  0.00000000E+00  0.00000000E+00
  0.00000000E+00  0.00000000E+00  0.00000000E+00
  0.00000000E+00  0.00000000E+00  0.00000000E+00
  0.00000000E+00  0.00000000E+00  0.00000000E+00
  0.00000000E+00  0.00000000E+00  0.00000000E+00
  0.00000000E+00  0.00000000E+00  0.00000000E+00
  0.00000000E+00  0.00000000E+00  0.00000000E+00
  0.00000000E+00  0.00000000E+00  0.00000000E+00
  0.00000000E+00  0.00000000E+00  0.00000000E+00
  0.00000000E+00  0.00000000E+00  0.00000000E+00
  0.00000000E+00  0.00000000E+00  0.00000000E+00
  0.00000000E+00  0.00000000E+00  0.00000000E+00
  0.00000000E+00  0.00000000E+00  0.00000000E+00
  0.00000000E+00  0.00000000E+00  0.00000000E+00
  0.00000000E+00  0.00000000E+00  0.00000000E+00
  0.00000000E+00  0.00000000E+00  0.00000000E+00
  0.00000000E+00  0.00000000E+00  0.00000000E+00
  0.00000000E+00  0.00000000E+00  0.00000000E+00
  0.00000000E+00  0.00000000E+00  0.00000000E+00
  0.00000000E+00  0.00000000E+00  0.00000000E+00
  0.00000000E+00  0.00000000E+00  0.00000000E+00
  0.00000000E+00  0.00000000E+00  0.00000000E+00
  0.00000000E+00  0.00000000E+00  0.00000000E+00
  0.00000000E+00  0.00000000E+00  0.00000000E+00
  0.00000000E+00  0.00000000E+00  0.00000000E+00
  0.00000000E+00  0.00000000E+00  0.00000000E+00
  0.00000000E+00  0.00000000E+00  0.00000000E+00
  0.00000000E+00  0.00000000E+00  0.00000000E+00
  0.00000000E+00  0.00000000E+00  0.00000000E+00
  0.00000000E+00  0.00000000E+00  0.00000000E+00
  0.00000000E+00  0.00000000E+00  0.00000000E+00
  0.00000000E+00  0.00000000E+00  0.00000000E+00
  0.00000000E+00  0.00000000E+00  0.00000000E+00
  0.00000000E+00  0.00000000E+00  0.00000000E+00
  0.00000000E+00  0.00000000E+00  0.00000000E+00
  0.00000000E+00  0.00000000E+00  0.00000000E+00
  0.00000000E+00  0.00000000E+00  0.00000000E+00
  0.00000000E+00  0.00000000E+00  0.00000000E+00
  0.00000000E+00  0.00000000E+00  0.00000000E+00
  0.00000000E+00  0.00000000E+00  0.00000000E+00
  0.00000000E+00  0.00000000E+00  0.00000000E+00
  0.00000000E+00  0.00000000E+00  0.00000000E+00
  0.00000000E+00  0.00000000E+00  0.00000000E+00
  0.00000000E+00  0.00000000E+00  0.00000000E+00
  0.00000000E+00  0.00000000E+00  0.00000000E+00
  0.00000000E+00  0.00000000E+00  0.00000000E+00
  0.00000000E+00  0.00000000E+00  0.00000000E+00
  0.00000000E+00  0.00000000E+00  0.00000000E+00
  0.00000000E+00  0.00000000E+00  0.00000000E+00
  0.00000000E+00  0.00000000E+00  0.00000000E+00
  0.00000000E+00  0.00000000E+00  0.00000000E+00
  0.00000000E+00  0.00000000E+00  0.00000000E+00
  0.00000000E+00  0.00000000E+00  0.00000000E+00
  0.00000000E+00  0.00000000E+00  0.00000000E+00
  0.00000000E+00  0.00000000E+00  0.00000000E+00
  0.00000000E+00  0.00000000E+00  0.00000000E+00
  0.00000000E+00  0.00000000E+00  0.00000000E+00
  0.00000000E+00  0.00000000E+00  0.00000000E+00
  0.00000000E+00  0.00000000E+00  0.00000000E+00
  0.00000000E+00  0.00000000E+00  0.00000000E+00
  0.00000000E+00  0.00000000E+00  0.00000000E+00
  0.00000000E+00  0.00000000E+00  0.00000000E+00
  0.00000000E+00  0.00000000E+00  0.00000000E+00
  0.00000000E+00  0.00000000E+00  0.00000000E+00
  0.00000000E+00  0.00000000E+00  0.00000000E+00
  0.00000000E+00  0.00000000E+00  0.00000000E+00
  0.00000000E+00  0.00000000E+00  0.00000000E+00
