C N H Pb I                              
   1.00000000000000     
    12.5768374277686394    0.0019159116494978    0.1381987933539664
     0.0011956322447466   12.4575380825249127   -0.0007464134870236
     0.1394107043392118    0.0000890449825412   12.7474206252920563
   C    N    H    Pb   I 
     8     8    48     8    24
Direct
  0.2057398252324845  0.2499447431695714  0.2152941484355182
  0.6882484395928117  0.2498718070590371  0.2425365602455756
  0.1882484395928117  0.7498718070590371  0.2425365602455756
  0.7057398252324845  0.7499447431695714  0.2152941484355182
  0.2057398252324845  0.2499447431695714  0.7152941484355182
  0.6882484395928117  0.2498718070590371  0.7425365602455756
  0.1882484395928117  0.7498718070590371  0.7425365602455756
  0.7057398252324845  0.7499447431695714  0.7152941484355182
  0.3069439527772815  0.2500313078549325  0.2746547571939857
  0.8021304850561535  0.2499759733782341  0.2731138357546214
  0.3021304850561535  0.7499759733782341  0.2731138357546214
  0.8069439527772815  0.7500313078549325  0.2746547571939857
  0.3069439527772815  0.2500313078549325  0.7746547571939857
  0.8021304850561535  0.2499759733782341  0.7731138357546214
  0.3021304850561535  0.7499759733782341  0.7731138357546214
  0.8069439527772815  0.7500313078549325  0.7746547571939857
  0.2256537588439613  0.2498199369441991  0.1300949475767794
  0.6844965756295451  0.2498222557038616  0.1556823043166489
  0.1844965756295451  0.7498222557038616  0.1556823043166489
  0.7256537588439613  0.7498199369441991  0.1300949475767794
  0.2256537588439613  0.2498199369441991  0.6300949475767794
  0.6844965756295451  0.2498222557038616  0.6556823043166489
  0.1844965756295451  0.7498222557038616  0.6556823043166489
  0.7256537588439613  0.7498199369441991  0.6300949475767794
  0.1598041628572417  0.3224882393947226  0.2364305106879314
  0.6488714504996054  0.3222161339860321  0.2746001278047032
  0.1488714504996054  0.8222161339860321  0.2746001278047032
  0.6598041628572417  0.8224882393947226  0.2364305106879314
  0.1598041628572417  0.3224882393947226  0.7364305106879314
  0.6488714504996054  0.3222161339860321  0.7746001278047032
  0.1488714504996054  0.8222161339860321  0.7746001278047032
  0.6598041628572417  0.8224882393947226  0.7364305106879314
  0.1598536687099781  0.1774551852745390  0.2366303823526579
  0.6490319985684891  0.1774969616757858  0.2746710310679674
  0.1490319985684891  0.6774969616757858  0.2746710310679674
  0.6598536687099781  0.6774551852745390  0.2366303823526579
  0.1598536687099781  0.1774551852745390  0.7366303823526579
  0.6490319985684891  0.1774969616757858  0.7746710310679674
  0.1490319985684891  0.6774969616757858  0.7746710310679674
  0.6598536687099781  0.6774551852745390  0.7366303823526579
  0.3533104907770692  0.3181659561303647  0.2572591506446500
  0.8429586639763400  0.3175826096840808  0.2442538313218279
  0.3429586639763400  0.8175826096840808  0.2442538313218279
  0.8533104907770692  0.8181659561303647  0.2572591506446500
  0.3533104907770692  0.3181659561303647  0.7572591506446500
  0.8429586639763329  0.3175826096840808  0.7442538313218279
  0.3429586639763400  0.8175826096840808  0.7442538313218279
  0.8533104907770692  0.8181659561303647  0.7572591506446500
  0.3533272907335956  0.1818257549208582  0.2574608166301786
  0.8430833097734833  0.1823840200218072  0.2443209830249486
  0.3430833097734833  0.6823840200218072  0.2443209830249486
  0.8533272907335956  0.6818257549208582  0.2574608166301786
  0.3533272907335956  0.1818257549208582  0.7574608166301786
  0.8430833097734833  0.1823840200218072  0.7443209830249486
  0.3430833097734833  0.6823840200218072  0.7443209830249486
  0.8533272907335956  0.6818257549208582  0.7574608166301786
  0.2933487268798913  0.2501691242666269  0.3559988875788136
  0.8129914190661367  0.2500179191723149  0.3552196017608509
  0.3129914190661367  0.7500179191723149  0.3552196017608509
  0.7933487268798913  0.7501691242666269  0.3559988875788136
  0.2933487268798913  0.2501691242666269  0.8559988875788136
  0.8129914190661367  0.2500179191723149  0.8552196017608509
  0.3129914190661367  0.7500179191723149  0.8552196017608509
  0.7933487268798913  0.7501691242666269  0.8559988875788136
  0.4724494428358099  0.5014159267783782  0.4888095460124973
  0.9724341091219131  0.4985636629514900  0.4888133480171106
  0.4724341091219131  0.9985636629514900  0.4888133480171106
  0.9724494428358099  0.0014159267783782  0.4888095460124973
  0.4724494428358099  0.5014159267783782  0.9888095460124973
  0.9724341091219131  0.4985636629514900  0.9888133480171106
  0.4724341091219131  0.9985636629514900  0.9888133480171106
  0.9724494428358099  0.0014159267783782  0.9888095460124973
  0.4547649258580861  0.5007504132493281  0.2375682224326070
  0.9547224228017157  0.4992316857752996  0.2375772614843825
  0.4547224228017157  0.9992316857752996  0.2375772614843825
  0.9547649258580861  0.0007504132493281  0.2375682224326070
  0.4547649258580861  0.5007504132493281  0.7375682224326070
  0.9547224228017157  0.4992316857752996  0.7375772614843825
  0.4547224228017157  0.9992316857752996  0.7375772614843825
  0.9547649258580861  0.0007504132493281  0.7375682224326070
  0.4771073028489567  0.2499735837910748  0.0066696185293296
  0.9221635762788338  0.2499844373000073  0.0169948169390892
  0.4221635762788338  0.7499844373000073  0.0169948169390892
  0.9771073028489567  0.7499735837910748  0.0066696185293296
  0.4771073028489567  0.2499735837910748  0.5066696185293296
  0.9221635762788338  0.2499844373000073  0.5169948169390892
  0.4221635762788338  0.7499844373000073  0.5169948169390892
  0.9771073028489567  0.7499735837910748  0.5066696185293296
  0.2161780698550473  0.4672079325151159  0.4612396969474588
  0.7161648070255282  0.5327869402024277  0.4612397067397538
  0.2161648070255282  0.0327869402024277  0.4612397067397538
  0.7161780698550473  0.9672079325151159  0.4612396969474588
  0.2161780698550473  0.4672079325151159  0.9612396969474588
  0.7161648070255282  0.5327869402024277  0.9612397067397538
  0.2161648070255282  0.0327869402024277  0.9612397067397538
  0.7161780698550473  0.9672079325151159  0.9612396969474588
 
  0.00000000E+00  0.00000000E+00  0.00000000E+00
  0.00000000E+00  0.00000000E+00  0.00000000E+00
  0.00000000E+00  0.00000000E+00  0.00000000E+00
  0.00000000E+00  0.00000000E+00  0.00000000E+00
  0.00000000E+00  0.00000000E+00  0.00000000E+00
  0.00000000E+00  0.00000000E+00  0.00000000E+00
  0.00000000E+00  0.00000000E+00  0.00000000E+00
  0.00000000E+00  0.00000000E+00  0.00000000E+00
  0.00000000E+00  0.00000000E+00  0.00000000E+00
  0.00000000E+00  0.00000000E+00  0.00000000E+00
  0.00000000E+00  0.00000000E+00  0.00000000E+00
  0.00000000E+00  0.00000000E+00  0.00000000E+00
  0.00000000E+00  0.00000000E+00  0.00000000E+00
  0.00000000E+00  0.00000000E+00  0.00000000E+00
  0.00000000E+00  0.00000000E+00  0.00000000E+00
  0.00000000E+00  0.00000000E+00  0.00000000E+00
  0.00000000E+00  0.00000000E+00  0.00000000E+00
  0.00000000E+00  0.00000000E+00  0.00000000E+00
  0.00000000E+00  0.00000000E+00  0.00000000E+00
  0.00000000E+00  0.00000000E+00  0.00000000E+00
  0.00000000E+00  0.00000000E+00  0.00000000E+00
  0.00000000E+00  0.00000000E+00  0.00000000E+00
  0.00000000E+00  0.00000000E+00  0.00000000E+00
  0.00000000E+00  0.00000000E+00  0.00000000E+00
  0.00000000E+00  0.00000000E+00  0.00000000E+00
  0.00000000E+00  0.00000000E+00  0.00000000E+00
  0.00000000E+00  0.00000000E+00  0.00000000E+00
  0.00000000E+00  0.00000000E+00  0.00000000E+00
  0.00000000E+00  0.00000000E+00  0.00000000E+00
  0.00000000E+00  0.00000000E+00  0.00000000E+00
  0.00000000E+00  0.00000000E+00  0.00000000E+00
  0.00000000E+00  0.00000000E+00  0.00000000E+00
  0.00000000E+00  0.00000000E+00  0.00000000E+00
  0.00000000E+00  0.00000000E+00  0.00000000E+00
  0.00000000E+00  0.00000000E+00  0.00000000E+00
  0.00000000E+00  0.00000000E+00  0.00000000E+00
  0.00000000E+00  0.00000000E+00  0.00000000E+00
  0.00000000E+00  0.00000000E+00  0.00000000E+00
  0.00000000E+00  0.00000000E+00  0.00000000E+00
  0.00000000E+00  0.00000000E+00  0.00000000E+00
  0.00000000E+00  0.00000000E+00  0.00000000E+00
  0.00000000E+00  0.00000000E+00  0.00000000E+00
  0.00000000E+00  0.00000000E+00  0.00000000E+00
  0.00000000E+00  0.00000000E+00  0.00000000E+00
  0.00000000E+00  0.00000000E+00  0.00000000E+00
  0.00000000E+00  0.00000000E+00  0.00000000E+00
  0.00000000E+00  0.00000000E+00  0.00000000E+00
  0.00000000E+00  0.00000000E+00  0.00000000E+00
  0.00000000E+00  0.00000000E+00  0.00000000E+00
  0.00000000E+00  0.00000000E+00  0.00000000E+00
  0.00000000E+00  0.00000000E+00  0.00000000E+00
  0.00000000E+00  0.00000000E+00  0.00000000E+00
  0.00000000E+00  0.00000000E+00  0.00000000E+00
  0.00000000E+00  0.00000000E+00  0.00000000E+00
  0.00000000E+00  0.00000000E+00  0.00000000E+00
  0.00000000E+00  0.00000000E+00  0.00000000E+00
  0.00000000E+00  0.00000000E+00  0.00000000E+00
  0.00000000E+00  0.00000000E+00  0.00000000E+00
  0.00000000E+00  0.00000000E+00  0.00000000E+00
  0.00000000E+00  0.00000000E+00  0.00000000E+00
  0.00000000E+00  0.00000000E+00  0.00000000E+00
  0.00000000E+00  0.00000000E+00  0.00000000E+00
  0.00000000E+00  0.00000000E+00  0.00000000E+00
  0.00000000E+00  0.00000000E+00  0.00000000E+00
  0.00000000E+00  0.00000000E+00  0.00000000E+00
  0.00000000E+00  0.00000000E+00  0.00000000E+00
  0.00000000E+00  0.00000000E+00  0.00000000E+00
  0.00000000E+00  0.00000000E+00  0.00000000E+00
  0.00000000E+00  0.00000000E+00  0.00000000E+00
  0.00000000E+00  0.00000000E+00  0.00000000E+00
  0.00000000E+00  0.00000000E+00  0.00000000E+00
  0.00000000E+00  0.00000000E+00  0.00000000E+00
  0.00000000E+00  0.00000000E+00  0.00000000E+00
  0.00000000E+00  0.00000000E+00  0.00000000E+00
  0.00000000E+00  0.00000000E+00  0.00000000E+00
  0.00000000E+00  0.00000000E+00  0.00000000E+00
  0.00000000E+00  0.00000000E+00  0.00000000E+00
  0.00000000E+00  0.00000000E+00  0.00000000E+00
  0.00000000E+00  0.00000000E+00  0.00000000E+00
  0.00000000E+00  0.00000000E+00  0.00000000E+00
  0.00000000E+00  0.00000000E+00  0.00000000E+00
  0.00000000E+00  0.00000000E+00  0.00000000E+00
  0.00000000E+00  0.00000000E+00  0.00000000E+00
  0.00000000E+00  0.00000000E+00  0.00000000E+00
  0.00000000E+00  0.00000000E+00  0.00000000E+00
  0.00000000E+00  0.00000000E+00  0.00000000E+00
  0.00000000E+00  0.00000000E+00  0.00000000E+00
  0.00000000E+00  0.00000000E+00  0.00000000E+00
  0.00000000E+00  0.00000000E+00  0.00000000E+00
  0.00000000E+00  0.00000000E+00  0.00000000E+00
  0.00000000E+00  0.00000000E+00  0.00000000E+00
  0.00000000E+00  0.00000000E+00  0.00000000E+00
  0.00000000E+00  0.00000000E+00  0.00000000E+00
  0.00000000E+00  0.00000000E+00  0.00000000E+00
  0.00000000E+00  0.00000000E+00  0.00000000E+00
  0.00000000E+00  0.00000000E+00  0.00000000E+00
