Si (Madelung Handbook, 295.7K)                                      
    5.4310 
    0.5 0.5  0.0
    0.5 0.0 -0.5
    0.0 0.5 -0.5
      Si
       2
Direct
  0.0000000000000000  0.0000000000000000  0.0000000000000000
  0.2500000000000000  0.2500000000000000  0.2500000000000000
