Automatically generated mesh: SCF=15, 0.005(284), GXKGL, 3.84x3
    1202  
Reciprocal lattice
    0.00000000000000    0.00000000000000    0.00000000000000             1
    0.16666666666667    0.00000000000000    0.00000000000000             8
    0.33333333333333    0.00000000000000    0.00000000000000             8
    0.50000000000000    0.00000000000000    0.00000000000000             4
    0.16666666666667    0.16666666666667    0.00000000000000             6
    0.33333333333333    0.16666666666667    0.00000000000000            24
    0.50000000000000    0.16666666666667    0.00000000000000            24
   -0.33333333333333    0.16666666666667    0.00000000000000            24
   -0.16666666666667    0.16666666666667    0.00000000000000            12
    0.33333333333333    0.33333333333333    0.00000000000000             6
    0.50000000000000    0.33333333333333    0.00000000000000            24
   -0.33333333333333    0.33333333333333    0.00000000000000            12
    0.50000000000000    0.50000000000000    0.00000000000000             3
    0.50000000000000    0.33333333333333    0.16666666666667            24
   -0.33333333333333    0.33333333333333    0.16666666666667            24
0.00000000  0.00000000  0.00000000   0.00
0.00176056  0.00000000  0.00176056   0.00
0.00352113  0.00000000  0.00352113   0.00
0.00528169  0.00000000  0.00528169   0.00
0.00704225  0.00000000  0.00704225   0.00
0.00880282  0.00000000  0.00880282   0.00
0.01056338  0.00000000  0.01056338   0.00
0.01232394  0.00000000  0.01232394   0.00
0.01408451  0.00000000  0.01408451   0.00
0.01584507  0.00000000  0.01584507   0.00
0.01760563  0.00000000  0.01760563   0.00
0.01936620  0.00000000  0.01936620   0.00
0.02112676  0.00000000  0.02112676   0.00
0.02288732  0.00000000  0.02288732   0.00
0.02464789  0.00000000  0.02464789   0.00
0.02640845  0.00000000  0.02640845   0.00
0.02816902  0.00000000  0.02816902   0.00
0.02992958  0.00000000  0.02992958   0.00
0.03169014  0.00000000  0.03169014   0.00
0.03345070  0.00000000  0.03345070   0.00
0.03521127  0.00000000  0.03521127   0.00
0.03697183  0.00000000  0.03697183   0.00
0.03873239  0.00000000  0.03873239   0.00
0.04049296  0.00000000  0.04049296   0.00
0.04225352  0.00000000  0.04225352   0.00
0.04401409  0.00000000  0.04401409   0.00
0.04577465  0.00000000  0.04577465   0.00
0.04753521  0.00000000  0.04753521   0.00
0.04929578  0.00000000  0.04929578   0.00
0.05105634  0.00000000  0.05105634   0.00
0.05281691  0.00000000  0.05281691   0.00
0.05457747  0.00000000  0.05457747   0.00
0.05633803  0.00000000  0.05633803   0.00
0.05809860  0.00000000  0.05809860   0.00
0.05985916  0.00000000  0.05985916   0.00
0.06161972  0.00000000  0.06161972   0.00
0.06338029  0.00000000  0.06338029   0.00
0.06514085  0.00000000  0.06514085   0.00
0.06690141  0.00000000  0.06690141   0.00
0.06866197  0.00000000  0.06866197   0.00
0.07042254  0.00000000  0.07042254   0.00
0.07218310  0.00000000  0.07218310   0.00
0.07394367  0.00000000  0.07394367   0.00
0.07570423  0.00000000  0.07570423   0.00
0.07746479  0.00000000  0.07746479   0.00
0.07922535  0.00000000  0.07922535   0.00
0.08098592  0.00000000  0.08098592   0.00
0.08274648  0.00000000  0.08274648   0.00
0.08450705  0.00000000  0.08450705   0.00
0.08626761  0.00000000  0.08626761   0.00
0.08802817  0.00000000  0.08802817   0.00
0.08978874  0.00000000  0.08978874   0.00
0.09154930  0.00000000  0.09154930   0.00
0.09330986  0.00000000  0.09330986   0.00
0.09507043  0.00000000  0.09507043   0.00
0.09683099  0.00000000  0.09683099   0.00
0.09859155  0.00000000  0.09859155   0.00
0.10035211  0.00000000  0.10035211   0.00
0.10211268  0.00000000  0.10211268   0.00
0.10387325  0.00000000  0.10387325   0.00
0.10563381  0.00000000  0.10563381   0.00
0.10739437  0.00000000  0.10739437   0.00
0.10915493  0.00000000  0.10915493   0.00
0.11091550  0.00000000  0.11091550   0.00
0.11267606  0.00000000  0.11267606   0.00
0.11443662  0.00000000  0.11443662   0.00
0.11619719  0.00000000  0.11619719   0.00
0.11795776  0.00000000  0.11795776   0.00
0.11971831  0.00000000  0.11971831   0.00
0.12147887  0.00000000  0.12147887   0.00
0.12323944  0.00000000  0.12323944   0.00
0.12500001  0.00000000  0.12500001   0.00
0.12676057  0.00000000  0.12676057   0.00
0.12852113  0.00000000  0.12852113   0.00
0.13028170  0.00000000  0.13028170   0.00
0.13204226  0.00000000  0.13204226   0.00
0.13380282  0.00000000  0.13380282   0.00
0.13556337  0.00000000  0.13556337   0.00
0.13732395  0.00000000  0.13732395   0.00
0.13908452  0.00000000  0.13908452   0.00
0.14084508  0.00000000  0.14084508   0.00
0.14260563  0.00000000  0.14260563   0.00
0.14436620  0.00000000  0.14436620   0.00
0.14612678  0.00000000  0.14612678   0.00
0.14788733  0.00000000  0.14788733   0.00
0.14964789  0.00000000  0.14964789   0.00
0.15140846  0.00000000  0.15140846   0.00
0.15316902  0.00000000  0.15316902   0.00
0.15492958  0.00000000  0.15492958   0.00
0.15669014  0.00000000  0.15669014   0.00
0.15845071  0.00000000  0.15845071   0.00
0.16021128  0.00000000  0.16021128   0.00
0.16197184  0.00000000  0.16197184   0.00
0.16373239  0.00000000  0.16373239   0.00
0.16549297  0.00000000  0.16549297   0.00
0.16725354  0.00000000  0.16725354   0.00
0.16901410  0.00000000  0.16901410   0.00
0.17077465  0.00000000  0.17077465   0.00
0.17253523  0.00000000  0.17253523   0.00
0.17429578  0.00000000  0.17429578   0.00
0.17605634  0.00000000  0.17605634   0.00
0.17781690  0.00000000  0.17781690   0.00
0.17957748  0.00000000  0.17957748   0.00
0.18133804  0.00000000  0.18133804   0.00
0.18309860  0.00000000  0.18309860   0.00
0.18485916  0.00000000  0.18485916   0.00
0.18661971  0.00000000  0.18661971   0.00
0.18838030  0.00000000  0.18838030   0.00
0.19014086  0.00000000  0.19014086   0.00
0.19190142  0.00000000  0.19190142   0.00
0.19366199  0.00000000  0.19366199   0.00
0.19542255  0.00000000  0.19542255   0.00
0.19718310  0.00000000  0.19718310   0.00
0.19894366  0.00000000  0.19894366   0.00
0.20070422  0.00000000  0.20070422   0.00
0.20246480  0.00000000  0.20246480   0.00
0.20422536  0.00000000  0.20422536   0.00
0.20598592  0.00000000  0.20598592   0.00
0.20774649  0.00000000  0.20774649   0.00
0.20950706  0.00000000  0.20950706   0.00
0.21126762  0.00000000  0.21126762   0.00
0.21302818  0.00000000  0.21302818   0.00
0.21478873  0.00000000  0.21478873   0.00
0.21654931  0.00000000  0.21654931   0.00
0.21830986  0.00000000  0.21830986   0.00
0.22007042  0.00000000  0.22007042   0.00
0.22183101  0.00000000  0.22183101   0.00
0.22359157  0.00000000  0.22359157   0.00
0.22535212  0.00000000  0.22535212   0.00
0.22711268  0.00000000  0.22711268   0.00
0.22887324  0.00000000  0.22887324   0.00
0.23063383  0.00000000  0.23063383   0.00
0.23239438  0.00000000  0.23239438   0.00
0.23415494  0.00000000  0.23415494   0.00
0.23591551  0.00000000  0.23591551   0.00
0.23767607  0.00000000  0.23767607   0.00
0.23943663  0.00000000  0.23943663   0.00
0.24119718  0.00000000  0.24119718   0.00
0.24295774  0.00000000  0.24295774   0.00
0.24471833  0.00000000  0.24471833   0.00
0.24647889  0.00000000  0.24647889   0.00
0.24823944  0.00000000  0.24823944   0.00
0.25000003  0.00000000  0.25000003   0.00
0.25176057  0.00000000  0.25176057   0.00
0.25352114  0.00000000  0.25352114   0.00
0.25528169  0.00000000  0.25528169   0.00
0.25704226  0.00000000  0.25704226   0.00
0.25880283  0.00000000  0.25880283   0.00
0.26056340  0.00000000  0.26056340   0.00
0.26232395  0.00000000  0.26232395   0.00
0.26408452  0.00000000  0.26408452   0.00
0.26584509  0.00000000  0.26584509   0.00
0.26760563  0.00000000  0.26760563   0.00
0.26936620  0.00000000  0.26936620   0.00
0.27112675  0.00000000  0.27112675   0.00
0.27288735  0.00000000  0.27288735   0.00
0.27464789  0.00000000  0.27464789   0.00
0.27640846  0.00000000  0.27640846   0.00
0.27816904  0.00000000  0.27816904   0.00
0.27992961  0.00000000  0.27992961   0.00
0.28169015  0.00000000  0.28169015   0.00
0.28345072  0.00000000  0.28345072   0.00
0.28521127  0.00000000  0.28521127   0.00
0.28697184  0.00000000  0.28697184   0.00
0.28873241  0.00000000  0.28873241   0.00
0.29049295  0.00000000  0.29049295   0.00
0.29225355  0.00000000  0.29225355   0.00
0.29401410  0.00000000  0.29401410   0.00
0.29577467  0.00000000  0.29577467   0.00
0.29753521  0.00000000  0.29753521   0.00
0.29929578  0.00000000  0.29929578   0.00
0.30105636  0.00000000  0.30105636   0.00
0.30281693  0.00000000  0.30281693   0.00
0.30457747  0.00000000  0.30457747   0.00
0.30633804  0.00000000  0.30633804   0.00
0.30809861  0.00000000  0.30809861   0.00
0.30985916  0.00000000  0.30985916   0.00
0.31161973  0.00000000  0.31161973   0.00
0.31338027  0.00000000  0.31338027   0.00
0.31514087  0.00000000  0.31514087   0.00
0.31690142  0.00000000  0.31690142   0.00
0.31866199  0.00000000  0.31866199   0.00
0.32042256  0.00000000  0.32042256   0.00
0.32218313  0.00000000  0.32218313   0.00
0.32394367  0.00000000  0.32394367   0.00
0.32570425  0.00000000  0.32570425   0.00
0.32746479  0.00000000  0.32746479   0.00
0.32922536  0.00000000  0.32922536   0.00
0.33098593  0.00000000  0.33098593   0.00
0.33274648  0.00000000  0.33274648   0.00
0.33450708  0.00000000  0.33450708   0.00
0.33626762  0.00000000  0.33626762   0.00
0.33802819  0.00000000  0.33802819   0.00
0.33978873  0.00000000  0.33978873   0.00
0.34154931  0.00000000  0.34154931   0.00
0.34330988  0.00000000  0.34330988   0.00
0.34507045  0.00000000  0.34507045   0.00
0.34683099  0.00000000  0.34683099   0.00
0.34859157  0.00000000  0.34859157   0.00
0.35035214  0.00000000  0.35035214   0.00
0.35211268  0.00000000  0.35211268   0.00
0.35387325  0.00000000  0.35387325   0.00
0.35563380  0.00000000  0.35563380   0.00
0.35739437  0.00000000  0.35739437   0.00
0.35915497  0.00000000  0.35915497   0.00
0.36091551  0.00000000  0.36091551   0.00
0.36267608  0.00000000  0.36267608   0.00
0.36443663  0.00000000  0.36443663   0.00
0.36619720  0.00000000  0.36619720   0.00
0.36795777  0.00000000  0.36795777   0.00
0.36971831  0.00000000  0.36971831   0.00
0.37147889  0.00000000  0.37147889   0.00
0.37323943  0.00000000  0.37323943   0.00
0.37500003  0.00000000  0.37500003   0.00
0.37676060  0.00000000  0.37676060   0.00
0.37852114  0.00000000  0.37852114   0.00
0.38028172  0.00000000  0.38028172   0.00
0.38204226  0.00000000  0.38204226   0.00
0.38380283  0.00000000  0.38380283   0.00
0.38556337  0.00000000  0.38556337   0.00
0.38732398  0.00000000  0.38732398   0.00
0.38908455  0.00000000  0.38908455   0.00
0.39084509  0.00000000  0.39084509   0.00
0.39260566  0.00000000  0.39260566   0.00
0.39436620  0.00000000  0.39436620   0.00
0.39612678  0.00000000  0.39612678   0.00
0.39788732  0.00000000  0.39788732   0.00
0.39964789  0.00000000  0.39964789   0.00
0.40140843  0.00000000  0.40140843   0.00
0.40316904  0.00000000  0.40316904   0.00
0.40492961  0.00000000  0.40492961   0.00
0.40669015  0.00000000  0.40669015   0.00
0.40845072  0.00000000  0.40845072   0.00
0.41021127  0.00000000  0.41021127   0.00
0.41197184  0.00000000  0.41197184   0.00
0.41373241  0.00000000  0.41373241   0.00
0.41549298  0.00000000  0.41549298   0.00
0.41725355  0.00000000  0.41725355   0.00
0.41901413  0.00000000  0.41901413   0.00
0.42077467  0.00000000  0.42077467   0.00
0.42253524  0.00000000  0.42253524   0.00
0.42429578  0.00000000  0.42429578   0.00
0.42605636  0.00000000  0.42605636   0.00
0.42781690  0.00000000  0.42781690   0.00
0.42957747  0.00000000  0.42957747   0.00
0.43133807  0.00000000  0.43133807   0.00
0.43309861  0.00000000  0.43309861   0.00
0.43485919  0.00000000  0.43485919   0.00
0.43661973  0.00000000  0.43661973   0.00
0.43838030  0.00000000  0.43838030   0.00
0.44014084  0.00000000  0.44014084   0.00
0.44190142  0.00000000  0.44190142   0.00
0.44366202  0.00000000  0.44366202   0.00
0.44542256  0.00000000  0.44542256   0.00
0.44718313  0.00000000  0.44718313   0.00
0.44894367  0.00000000  0.44894367   0.00
0.45070425  0.00000000  0.45070425   0.00
0.45246479  0.00000000  0.45246479   0.00
0.45422536  0.00000000  0.45422536   0.00
0.45598593  0.00000000  0.45598593   0.00
0.45774648  0.00000000  0.45774648   0.00
0.45950708  0.00000000  0.45950708   0.00
0.46126765  0.00000000  0.46126765   0.00
0.46302819  0.00000000  0.46302819   0.00
0.46478876  0.00000000  0.46478876   0.00
0.46654931  0.00000000  0.46654931   0.00
0.46830988  0.00000000  0.46830988   0.00
0.47007042  0.00000000  0.47007042   0.00
0.47183102  0.00000000  0.47183102   0.00
0.47359160  0.00000000  0.47359160   0.00
0.47535214  0.00000000  0.47535214   0.00
0.47711271  0.00000000  0.47711271   0.00
0.47887325  0.00000000  0.47887325   0.00
0.48063383  0.00000000  0.48063383   0.00
0.48239437  0.00000000  0.48239437   0.00
0.48415494  0.00000000  0.48415494   0.00
0.48591548  0.00000000  0.48591548   0.00
0.48767608  0.00000000  0.48767608   0.00
0.48943666  0.00000000  0.48943666   0.00
0.49119720  0.00000000  0.49119720   0.00
0.49295777  0.00000000  0.49295777   0.00
0.49471831  0.00000000  0.49471831   0.00
0.49647889  0.00000000  0.49647889   0.00
0.49823943  0.00000000  0.49823943   0.00
0.50000006  0.00000000  0.50000006   0.00
0.49933156  0.00200535  0.50133687   0.00
0.49866310  0.00401070  0.50267380   0.00
0.49799466  0.00601604  0.50401068   0.00
0.49732620  0.00802139  0.50534761   0.00
0.49665776  0.01002674  0.50668448   0.00
0.49598929  0.01203209  0.50802141   0.00
0.49532086  0.01403743  0.50935829   0.00
0.49465242  0.01604278  0.51069516   0.00
0.49398395  0.01804813  0.51203209   0.00
0.49331552  0.02005348  0.51336896   0.00
0.49264705  0.02205882  0.51470590   0.00
0.49197862  0.02406417  0.51604277   0.00
0.49131015  0.02606952  0.51737970   0.00
0.49064171  0.02807487  0.51871657   0.00
0.48997325  0.03008022  0.52005351   0.00
0.48930481  0.03208556  0.52139038   0.00
0.48863637  0.03409091  0.52272725   0.00
0.48796791  0.03609626  0.52406418   0.00
0.48729947  0.03810161  0.52540106   0.00
0.48663101  0.04010695  0.52673799   0.00
0.48596257  0.04211230  0.52807486   0.00
0.48529410  0.04411765  0.52941179   0.00
0.48462567  0.04612300  0.53074867   0.00
0.48395723  0.04812835  0.53208554   0.00
0.48328876  0.05013369  0.53342247   0.00
0.48262033  0.05213904  0.53475934   0.00
0.48195186  0.05414439  0.53609627   0.00
0.48128343  0.05614974  0.53743315   0.00
0.48061496  0.05815508  0.53877008   0.00
0.47994652  0.06016043  0.54010695   0.00
0.47927809  0.06216578  0.54144382   0.00
0.47860962  0.06417113  0.54278076   0.00
0.47794119  0.06617647  0.54411763   0.00
0.47727272  0.06818183  0.54545456   0.00
0.47660428  0.07018717  0.54679143   0.00
0.47593582  0.07219251  0.54812837   0.00
0.47526738  0.07419787  0.54946524   0.00
0.47459894  0.07620321  0.55080211   0.00
0.47393048  0.07820856  0.55213904   0.00
0.47326204  0.08021390  0.55347592   0.00
0.47259358  0.08221926  0.55481285   0.00
0.47192514  0.08422460  0.55614972   0.00
0.47125667  0.08622995  0.55748665   0.00
0.47058824  0.08823530  0.55882353   0.00
0.46991980  0.09024064  0.56016040   0.00
0.46925133  0.09224600  0.56149733   0.00
0.46858290  0.09425134  0.56283420   0.00
0.46791443  0.09625670  0.56417114   0.00
0.46724600  0.09826203  0.56550801   0.00
0.46657753  0.10026738  0.56684494   0.00
0.46590909  0.10227273  0.56818181   0.00
0.46524063  0.10427808  0.56951874   0.00
0.46457219  0.10628343  0.57085562   0.00
0.46390375  0.10828877  0.57219249   0.00
0.46323529  0.11029413  0.57352942   0.00
0.46256685  0.11229947  0.57486629   0.00
0.46189839  0.11430482  0.57620323   0.00
0.46122995  0.11631016  0.57754010   0.00
0.46056151  0.11831551  0.57887697   0.00
0.45989305  0.12032086  0.58021390   0.00
0.45922461  0.12232621  0.58155078   0.00
0.45855615  0.12433156  0.58288771   0.00
0.45788771  0.12633690  0.58422458   0.00
0.45721924  0.12834226  0.58556151   0.00
0.45655081  0.13034759  0.58689839   0.00
0.45588234  0.13235295  0.58823532   0.00
0.45521390  0.13435830  0.58957219   0.00
0.45454544  0.13636366  0.59090912   0.00
0.45387700  0.13836898  0.59224600   0.00
0.45320857  0.14037433  0.59358287   0.00
0.45254010  0.14237969  0.59491980   0.00
0.45187166  0.14438502  0.59625667   0.00
0.45120320  0.14639038  0.59759361   0.00
0.45053476  0.14839573  0.59893048   0.00
0.44986629  0.15040109  0.60026741   0.00
0.44919786  0.15240642  0.60160428   0.00
0.44852942  0.15441178  0.60294116   0.00
0.44786096  0.15641712  0.60427809   0.00
0.44719252  0.15842246  0.60561496   0.00
0.44652405  0.16042781  0.60695189   0.00
0.44585562  0.16243316  0.60828876   0.00
0.44518715  0.16443852  0.60962570   0.00
0.44451872  0.16644385  0.61096257   0.00
0.44385028  0.16844921  0.61229944   0.00
0.44318181  0.17045456  0.61363637   0.00
0.44251338  0.17245990  0.61497325   0.00
0.44184491  0.17446524  0.61631018   0.00
0.44117647  0.17647059  0.61764705   0.00
0.44050801  0.17847595  0.61898398   0.00
0.43983957  0.18048128  0.62032086   0.00
0.43917114  0.18248664  0.62165773   0.00
0.43850267  0.18449199  0.62299466   0.00
0.43783423  0.18649733  0.62433153   0.00
0.43716577  0.18850268  0.62566847   0.00
0.43649733  0.19050804  0.62700534   0.00
0.43582886  0.19251339  0.62834227   0.00
0.43516043  0.19451872  0.62967914   0.00
0.43449199  0.19652407  0.63101602   0.00
0.43382353  0.19852942  0.63235295   0.00
0.43315506  0.20053476  0.63368988   0.00
0.43248662  0.20254011  0.63502675   0.00
0.43181819  0.20454547  0.63636363   0.00
0.43114972  0.20655082  0.63770056   0.00
0.43048128  0.20855616  0.63903743   0.00
0.42981285  0.21056151  0.64037430   0.00
0.42914438  0.21256685  0.64171124   0.00
0.42847592  0.21457219  0.64304817   0.00
0.42780748  0.21657754  0.64438504   0.00
0.42713904  0.21858290  0.64572191   0.00
0.42647058  0.22058825  0.64705884   0.00
0.42580214  0.22259359  0.64839572   0.00
0.42513371  0.22459894  0.64973259   0.00
0.42446524  0.22660430  0.65106952   0.00
0.42379680  0.22860964  0.65240639   0.00
0.42312834  0.23061498  0.65374333   0.00
0.42245990  0.23262033  0.65508020   0.00
0.42179143  0.23462568  0.65641713   0.00
0.42112300  0.23663102  0.65775400   0.00
0.42045453  0.23863637  0.65909094   0.00
0.41978610  0.24064173  0.66042781   0.00
0.41911763  0.24264707  0.66176474   0.00
0.41844919  0.24465242  0.66310161   0.00
0.41778076  0.24665777  0.66443849   0.00
0.41711229  0.24866311  0.66577542   0.00
0.41644385  0.25066847  0.66711229   0.00
0.41577542  0.25267380  0.66844916   0.00
0.41510695  0.25467914  0.66978610   0.00
0.41443849  0.25668451  0.67112303   0.00
0.41377005  0.25868985  0.67245990   0.00
0.41310161  0.26069519  0.67379677   0.00
0.41243315  0.26270056  0.67513371   0.00
0.41176471  0.26470590  0.67647058   0.00
0.41109627  0.26671124  0.67780745   0.00
0.41042781  0.26871660  0.67914438   0.00
0.40975934  0.27072194  0.68048131   0.00
0.40909091  0.27272731  0.68181819   0.00
0.40842247  0.27473262  0.68315506   0.00
0.40775400  0.27673796  0.68449199   0.00
0.40708557  0.27874333  0.68582886   0.00
0.40641710  0.28074867  0.68716580   0.00
0.40574867  0.28275403  0.68850267   0.00
0.40508020  0.28475937  0.68983960   0.00
0.40441176  0.28676474  0.69117647   0.00
0.40374333  0.28877005  0.69251335   0.00
0.40307486  0.29077542  0.69385028   0.00
0.40240639  0.29278076  0.69518721   0.00
0.40173796  0.29478610  0.69652408   0.00
0.40106952  0.29679146  0.69786096   0.00
0.40040106  0.29879680  0.69919789   0.00
0.39973262  0.30080217  0.70053476   0.00
0.39906418  0.30280748  0.70187163   0.00
0.39839572  0.30481285  0.70320857   0.00
0.39772728  0.30681819  0.70454544   0.00
0.39705881  0.30882356  0.70588237   0.00
0.39639038  0.31082889  0.70721924   0.00
0.39572191  0.31283423  0.70855618   0.00
0.39505348  0.31483960  0.70989305   0.00
0.39438504  0.31684491  0.71122992   0.00
0.39371657  0.31885028  0.71256685   0.00
0.39304814  0.32085562  0.71390373   0.00
0.39237967  0.32286099  0.71524066   0.00
0.39171124  0.32486632  0.71657753   0.00
0.39104277  0.32687169  0.71791446   0.00
0.39037433  0.32887703  0.71925133   0.00
0.38970587  0.33088234  0.72058827   0.00
0.38903743  0.33288771  0.72192514   0.00
0.38836899  0.33489305  0.72326201   0.00
0.38770053  0.33689842  0.72459894   0.00
0.38703209  0.33890375  0.72593582   0.00
0.38636363  0.34090912  0.72727275   0.00
0.38569519  0.34291446  0.72860962   0.00
0.38502675  0.34491980  0.72994649   0.00
0.38435829  0.34692514  0.73128343   0.00
0.38368982  0.34893048  0.73262036   0.00
0.38302138  0.35093585  0.73395723   0.00
0.38235295  0.35294119  0.73529410   0.00
0.38168448  0.35494655  0.73663104   0.00
0.38101605  0.35695189  0.73796791   0.00
0.38034761  0.35895723  0.73930478   0.00
0.37967914  0.36096257  0.74064171   0.00
0.37901068  0.36296794  0.74197865   0.00
0.37834224  0.36497328  0.74331552   0.00
0.37767380  0.36697862  0.74465239   0.00
0.37700534  0.36898398  0.74598932   0.00
0.37633690  0.37098932  0.74732620   0.00
0.37566844  0.37299466  0.74866313   0.00
0.37500000  0.37500000  0.75000000   0.00
0.37398097  0.37398097  0.74796194   0.00
0.37296197  0.37296197  0.74592394   0.00
0.37194294  0.37194294  0.74388587   0.00
0.37092391  0.37092391  0.74184781   0.00
0.36990491  0.36990491  0.73980981   0.00
0.36888587  0.36888587  0.73777175   0.00
0.36786684  0.36786684  0.73573369   0.00
0.36684781  0.36684781  0.73369563   0.00
0.36582881  0.36582881  0.73165762   0.00
0.36480978  0.36480978  0.72961956   0.00
0.36379075  0.36379075  0.72758150   0.00
0.36277175  0.36277175  0.72554350   0.00
0.36175272  0.36175272  0.72350544   0.00
0.36073369  0.36073369  0.72146738   0.00
0.35971469  0.35971469  0.71942937   0.00
0.35869566  0.35869566  0.71739131   0.00
0.35767663  0.35767663  0.71535325   0.00
0.35665762  0.35665762  0.71331525   0.00
0.35563859  0.35563859  0.71127719   0.00
0.35461956  0.35461956  0.70923913   0.00
0.35360053  0.35360053  0.70720106   0.00
0.35258153  0.35258153  0.70516306   0.00
0.35156250  0.35156250  0.70312500   0.00
0.35054347  0.35054347  0.70108694   0.00
0.34952447  0.34952447  0.69904894   0.00
0.34850544  0.34850544  0.69701087   0.00
0.34748641  0.34748641  0.69497281   0.00
0.34646741  0.34646741  0.69293481   0.00
0.34544837  0.34544837  0.69089675   0.00
0.34442934  0.34442934  0.68885869   0.00
0.34341031  0.34341031  0.68682063   0.00
0.34239131  0.34239131  0.68478262   0.00
0.34137228  0.34137228  0.68274456   0.00
0.34035325  0.34035325  0.68070650   0.00
0.33933425  0.33933425  0.67866850   0.00
0.33831522  0.33831522  0.67663044   0.00
0.33729619  0.33729619  0.67459238   0.00
0.33627719  0.33627719  0.67255437   0.00
0.33525816  0.33525816  0.67051631   0.00
0.33423913  0.33423913  0.66847825   0.00
0.33322012  0.33322012  0.66644025   0.00
0.33220109  0.33220109  0.66440219   0.00
0.33118206  0.33118206  0.66236413   0.00
0.33016303  0.33016303  0.66032606   0.00
0.32914403  0.32914403  0.65828806   0.00
0.32812500  0.32812500  0.65625000   0.00
0.32710597  0.32710597  0.65421194   0.00
0.32608697  0.32608697  0.65217394   0.00
0.32506794  0.32506794  0.65013587   0.00
0.32404891  0.32404891  0.64809781   0.00
0.32302991  0.32302991  0.64605981   0.00
0.32201087  0.32201087  0.64402175   0.00
0.32099184  0.32099184  0.64198369   0.00
0.31997281  0.31997281  0.63994563   0.00
0.31895381  0.31895381  0.63790762   0.00
0.31793478  0.31793478  0.63586956   0.00
0.31691575  0.31691575  0.63383150   0.00
0.31589675  0.31589675  0.63179350   0.00
0.31487772  0.31487772  0.62975544   0.00
0.31385869  0.31385869  0.62771738   0.00
0.31283969  0.31283969  0.62567937   0.00
0.31182066  0.31182066  0.62364131   0.00
0.31080163  0.31080163  0.62160325   0.00
0.30978262  0.30978262  0.61956525   0.00
0.30876359  0.30876359  0.61752719   0.00
0.30774456  0.30774456  0.61548913   0.00
0.30672556  0.30672556  0.61345112   0.00
0.30570653  0.30570653  0.61141306   0.00
0.30468750  0.30468750  0.60937500   0.00
0.30366847  0.30366847  0.60733694   0.00
0.30264944  0.30264944  0.60529888   0.00
0.30163044  0.30163044  0.60326087   0.00
0.30061141  0.30061141  0.60122281   0.00
0.29959238  0.29959238  0.59918475   0.00
0.29857337  0.29857337  0.59714675   0.00
0.29755434  0.29755434  0.59510869   0.00
0.29653531  0.29653531  0.59307063   0.00
0.29551631  0.29551631  0.59103262   0.00
0.29449728  0.29449728  0.58899456   0.00
0.29347825  0.29347825  0.58695650   0.00
0.29245925  0.29245925  0.58491850   0.00
0.29144022  0.29144022  0.58288044   0.00
0.29042119  0.29042119  0.58084238   0.00
0.28940219  0.28940219  0.57880437   0.00
0.28838316  0.28838316  0.57676631   0.00
0.28736413  0.28736413  0.57472825   0.00
0.28634512  0.28634512  0.57269025   0.00
0.28532609  0.28532609  0.57065219   0.00
0.28430706  0.28430706  0.56861413   0.00
0.28328803  0.28328803  0.56657606   0.00
0.28226903  0.28226903  0.56453806   0.00
0.28125000  0.28125000  0.56250000   0.00
0.28023097  0.28023097  0.56046194   0.00
0.27921194  0.27921194  0.55842388   0.00
0.27819294  0.27819294  0.55638587   0.00
0.27717394  0.27717394  0.55434787   0.00
0.27615491  0.27615491  0.55230981   0.00
0.27513587  0.27513587  0.55027175   0.00
0.27411684  0.27411684  0.54823369   0.00
0.27309781  0.27309781  0.54619563   0.00
0.27207881  0.27207881  0.54415762   0.00
0.27105978  0.27105978  0.54211956   0.00
0.27004075  0.27004075  0.54008150   0.00
0.26902175  0.26902175  0.53804350   0.00
0.26800272  0.26800272  0.53600544   0.00
0.26698369  0.26698369  0.53396738   0.00
0.26596469  0.26596469  0.53192937   0.00
0.26494566  0.26494566  0.52989131   0.00
0.26392663  0.26392663  0.52785325   0.00
0.26290762  0.26290762  0.52581525   0.00
0.26188859  0.26188859  0.52377719   0.00
0.26086956  0.26086956  0.52173913   0.00
0.25985056  0.25985056  0.51970112   0.00
0.25883153  0.25883153  0.51766306   0.00
0.25781250  0.25781250  0.51562500   0.00
0.25679350  0.25679350  0.51358700   0.00
0.25577447  0.25577447  0.51154894   0.00
0.25475544  0.25475544  0.50951087   0.00
0.25373641  0.25373641  0.50747281   0.00
0.25271738  0.25271738  0.50543475   0.00
0.25169837  0.25169837  0.50339675   0.00
0.25067934  0.25067934  0.50135869   0.00
0.24966033  0.24966033  0.49932066   0.00
0.24864131  0.24864131  0.49728262   0.00
0.24762228  0.24762228  0.49524456   0.00
0.24660327  0.24660327  0.49320653   0.00
0.24558423  0.24558423  0.49116847   0.00
0.24456522  0.24456522  0.48913044   0.00
0.24354620  0.24354620  0.48709241   0.00
0.24252717  0.24252717  0.48505434   0.00
0.24150816  0.24150816  0.48301631   0.00
0.24048913  0.24048913  0.48097825   0.00
0.23947011  0.23947011  0.47894022   0.00
0.23845109  0.23845109  0.47690219   0.00
0.23743206  0.23743206  0.47486413   0.00
0.23641305  0.23641305  0.47282609   0.00
0.23539402  0.23539402  0.47078803   0.00
0.23437500  0.23437500  0.46875000   0.00
0.23335598  0.23335598  0.46671197   0.00
0.23233695  0.23233695  0.46467391   0.00
0.23131794  0.23131794  0.46263587   0.00
0.23029891  0.23029891  0.46059781   0.00
0.22927989  0.22927989  0.45855978   0.00
0.22826087  0.22826087  0.45652175   0.00
0.22724184  0.22724184  0.45448369   0.00
0.22622283  0.22622283  0.45244566   0.00
0.22520380  0.22520380  0.45040759   0.00
0.22418478  0.22418478  0.44836956   0.00
0.22316577  0.22316577  0.44633153   0.00
0.22214673  0.22214673  0.44429347   0.00
0.22112772  0.22112772  0.44225544   0.00
0.22010869  0.22010869  0.44021738   0.00
0.21908967  0.21908967  0.43817934   0.00
0.21807066  0.21807066  0.43614131   0.00
0.21705163  0.21705163  0.43410325   0.00
0.21603261  0.21603261  0.43206522   0.00
0.21501358  0.21501358  0.43002716   0.00
0.21399456  0.21399456  0.42798913   0.00
0.21297555  0.21297555  0.42595109   0.00
0.21195652  0.21195652  0.42391303   0.00
0.21093750  0.21093750  0.42187500   0.00
0.20991847  0.20991847  0.41983694   0.00
0.20889945  0.20889945  0.41779891   0.00
0.20788044  0.20788044  0.41576087   0.00
0.20686141  0.20686141  0.41372281   0.00
0.20584239  0.20584239  0.41168478   0.00
0.20482337  0.20482337  0.40964675   0.00
0.20380434  0.20380434  0.40760869   0.00
0.20278533  0.20278533  0.40557066   0.00
0.20176630  0.20176630  0.40353259   0.00
0.20074728  0.20074728  0.40149456   0.00
0.19972827  0.19972827  0.39945653   0.00
0.19870923  0.19870923  0.39741847   0.00
0.19769022  0.19769022  0.39538044   0.00
0.19667119  0.19667119  0.39334238   0.00
0.19565217  0.19565217  0.39130434   0.00
0.19463316  0.19463316  0.38926631   0.00
0.19361413  0.19361413  0.38722825   0.00
0.19259511  0.19259511  0.38519022   0.00
0.19157608  0.19157608  0.38315216   0.00
0.19055706  0.19055706  0.38111413   0.00
0.18953805  0.18953805  0.37907609   0.00
0.18851902  0.18851902  0.37703803   0.00
0.18750000  0.18750000  0.37500000   0.00
0.18648097  0.18648097  0.37296194   0.00
0.18546195  0.18546195  0.37092391   0.00
0.18444294  0.18444294  0.36888587   0.00
0.18342391  0.18342391  0.36684781   0.00
0.18240489  0.18240489  0.36480978   0.00
0.18138586  0.18138586  0.36277172   0.00
0.18036684  0.18036684  0.36073369   0.00
0.17934784  0.17934784  0.35869569   0.00
0.17832881  0.17832881  0.35665762   0.00
0.17730980  0.17730980  0.35461959   0.00
0.17629077  0.17629077  0.35258153   0.00
0.17527175  0.17527175  0.35054350   0.00
0.17425273  0.17425273  0.34850547   0.00
0.17323370  0.17323370  0.34646741   0.00
0.17221469  0.17221469  0.34442937   0.00
0.17119566  0.17119566  0.34239131   0.00
0.17017664  0.17017664  0.34035328   0.00
0.16915762  0.16915762  0.33831525   0.00
0.16813859  0.16813859  0.33627719   0.00
0.16711958  0.16711958  0.33423916   0.00
0.16610055  0.16610055  0.33220109   0.00
0.16508153  0.16508153  0.33016306   0.00
0.16406251  0.16406251  0.32812503   0.00
0.16304348  0.16304348  0.32608697   0.00
0.16202447  0.16202447  0.32404894   0.00
0.16100544  0.16100544  0.32201087   0.00
0.15998642  0.15998642  0.31997284   0.00
0.15896741  0.15896741  0.31793481   0.00
0.15794837  0.15794837  0.31589675   0.00