Automatically generated mesh: SCF=15, 0.005(201), 0.419,0,0.419-0.419,0.5,0.419, 3.84x3
    216  
Reciprocal lattice
    0.00000000000000    0.00000000000000    0.00000000000000             1
    0.16666666666667    0.00000000000000    0.00000000000000             8
    0.33333333333333    0.00000000000000    0.00000000000000             8
    0.50000000000000    0.00000000000000    0.00000000000000             4
    0.16666666666667    0.16666666666667    0.00000000000000             6
    0.33333333333333    0.16666666666667    0.00000000000000            24
    0.50000000000000    0.16666666666667    0.00000000000000            24
   -0.33333333333333    0.16666666666667    0.00000000000000            24
   -0.16666666666667    0.16666666666667    0.00000000000000            12
    0.33333333333333    0.33333333333333    0.00000000000000             6
    0.50000000000000    0.33333333333333    0.00000000000000            24
   -0.33333333333333    0.33333333333333    0.00000000000000            12
    0.50000000000000    0.50000000000000    0.00000000000000             3
    0.50000000000000    0.33333333333333    0.16666666666667            24
   -0.33333333333333    0.33333333333333    0.16666666666667            24
0.41900000  0.00000000  0.41900000   0.00
0.41900000  0.00248756  0.41900000   0.00
0.41900000  0.00497512  0.41900000   0.00
0.41900000  0.00746269  0.41900000   0.00
0.41900000  0.00995025  0.41900000   0.00
0.41900000  0.01243781  0.41900000   0.00
0.41900000  0.01492537  0.41900000   0.00
0.41900000  0.01741293  0.41900000   0.00
0.41900000  0.01990050  0.41900000   0.00
0.41900000  0.02238806  0.41900000   0.00
0.41900000  0.02487562  0.41900000   0.00
0.41900000  0.02736318  0.41900000   0.00
0.41900000  0.02985075  0.41900000   0.00
0.41900000  0.03233831  0.41900000   0.00
0.41900000  0.03482587  0.41900000   0.00
0.41900000  0.03731343  0.41900000   0.00
0.41900000  0.03980099  0.41900000   0.00
0.41900000  0.04228856  0.41900000   0.00
0.41900000  0.04477612  0.41900000   0.00
0.41900000  0.04726368  0.41900000   0.00
0.41900000  0.04975124  0.41900000   0.00
0.41900000  0.05223880  0.41900000   0.00
0.41900000  0.05472637  0.41900000   0.00
0.41900000  0.05721393  0.41900000   0.00
0.41900000  0.05970149  0.41900000   0.00
0.41900000  0.06218905  0.41900000   0.00
0.41900000  0.06467661  0.41900000   0.00
0.41900000  0.06716418  0.41900000   0.00
0.41900000  0.06965174  0.41900000   0.00
0.41900000  0.07213930  0.41900000   0.00
0.41900000  0.07462686  0.41900000   0.00
0.41900000  0.07711443  0.41900000   0.00
0.41900000  0.07960199  0.41900000   0.00
0.41900000  0.08208955  0.41900000   0.00
0.41900000  0.08457711  0.41900000   0.00
0.41900000  0.08706468  0.41900000   0.00
0.41900000  0.08955224  0.41900000   0.00
0.41900000  0.09203980  0.41900000   0.00
0.41900000  0.09452736  0.41900000   0.00
0.41900000  0.09701493  0.41900000   0.00
0.41900000  0.09950249  0.41900000   0.00
0.41900000  0.10199004  0.41900000   0.00
0.41900000  0.10447761  0.41900000   0.00
0.41900000  0.10696517  0.41900000   0.00
0.41900000  0.10945273  0.41900000   0.00
0.41900000  0.11194029  0.41900000   0.00
0.41900000  0.11442786  0.41900000   0.00
0.41900000  0.11691542  0.41900000   0.00
0.41900000  0.11940298  0.41900000   0.00
0.41900000  0.12189054  0.41900000   0.00
0.41900000  0.12437811  0.41900000   0.00
0.41900000  0.12686567  0.41900000   0.00
0.41900000  0.12935323  0.41900000   0.00
0.41900000  0.13184080  0.41900000   0.00
0.41900000  0.13432835  0.41900000   0.00
0.41900000  0.13681592  0.41900000   0.00
0.41900000  0.13930348  0.41900000   0.00
0.41900000  0.14179105  0.41900000   0.00
0.41900000  0.14427860  0.41900000   0.00
0.41900000  0.14676617  0.41900000   0.00
0.41900000  0.14925373  0.41900000   0.00
0.41900000  0.15174130  0.41900000   0.00
0.41900000  0.15422885  0.41900000   0.00
0.41900000  0.15671642  0.41900000   0.00
0.41900000  0.15920398  0.41900000   0.00
0.41900000  0.16169153  0.41900000   0.00
0.41900000  0.16417910  0.41900000   0.00
0.41900000  0.16666666  0.41900000   0.00
0.41900000  0.16915423  0.41900000   0.00
0.41900000  0.17164178  0.41900000   0.00
0.41900000  0.17412935  0.41900000   0.00
0.41900000  0.17661691  0.41900000   0.00
0.41900000  0.17910448  0.41900000   0.00
0.41900000  0.18159203  0.41900000   0.00
0.41900000  0.18407960  0.41900000   0.00
0.41900000  0.18656716  0.41900000   0.00
0.41900000  0.18905473  0.41900000   0.00
0.41900000  0.19154228  0.41900000   0.00
0.41900000  0.19402985  0.41900000   0.00
0.41900000  0.19651741  0.41900000   0.00
0.41900000  0.19900498  0.41900000   0.00
0.41900000  0.20149253  0.41900000   0.00
0.41900000  0.20398009  0.41900000   0.00
0.41900000  0.20646766  0.41900000   0.00
0.41900000  0.20895521  0.41900000   0.00
0.41900000  0.21144278  0.41900000   0.00
0.41900000  0.21393034  0.41900000   0.00
0.41900000  0.21641791  0.41900000   0.00
0.41900000  0.21890546  0.41900000   0.00
0.41900000  0.22139303  0.41900000   0.00
0.41900000  0.22388059  0.41900000   0.00
0.41900000  0.22636816  0.41900000   0.00
0.41900000  0.22885571  0.41900000   0.00
0.41900000  0.23134328  0.41900000   0.00
0.41900000  0.23383084  0.41900000   0.00
0.41900000  0.23631841  0.41900000   0.00
0.41900000  0.23880596  0.41900000   0.00
0.41900000  0.24129352  0.41900000   0.00
0.41900000  0.24378109  0.41900000   0.00
0.41900000  0.24626864  0.41900000   0.00
0.41900000  0.24875621  0.41900000   0.00
0.41900000  0.25124377  0.41900000   0.00
0.41900000  0.25373134  0.41900000   0.00
0.41900000  0.25621891  0.41900000   0.00
0.41900000  0.25870645  0.41900000   0.00
0.41900000  0.26119402  0.41900000   0.00
0.41900000  0.26368159  0.41900000   0.00
0.41900000  0.26616916  0.41900000   0.00
0.41900000  0.26865670  0.41900000   0.00
0.41900000  0.27114427  0.41900000   0.00
0.41900000  0.27363184  0.41900000   0.00
0.41900000  0.27611941  0.41900000   0.00
0.41900000  0.27860695  0.41900000   0.00
0.41900000  0.28109452  0.41900000   0.00
0.41900000  0.28358209  0.41900000   0.00
0.41900000  0.28606963  0.41900000   0.00
0.41900000  0.28855720  0.41900000   0.00
0.41900000  0.29104477  0.41900000   0.00
0.41900000  0.29353234  0.41900000   0.00
0.41900000  0.29601988  0.41900000   0.00
0.41900000  0.29850745  0.41900000   0.00
0.41900000  0.30099502  0.41900000   0.00
0.41900000  0.30348259  0.41900000   0.00
0.41900000  0.30597013  0.41900000   0.00
0.41900000  0.30845770  0.41900000   0.00
0.41900000  0.31094527  0.41900000   0.00
0.41900000  0.31343284  0.41900000   0.00
0.41900000  0.31592038  0.41900000   0.00
0.41900000  0.31840795  0.41900000   0.00
0.41900000  0.32089552  0.41900000   0.00
0.41900000  0.32338306  0.41900000   0.00
0.41900000  0.32587063  0.41900000   0.00
0.41900000  0.32835820  0.41900000   0.00
0.41900000  0.33084577  0.41900000   0.00
0.41900000  0.33333331  0.41900000   0.00
0.41900000  0.33582088  0.41900000   0.00
0.41900000  0.33830845  0.41900000   0.00
0.41900000  0.34079602  0.41900000   0.00
0.41900000  0.34328356  0.41900000   0.00
0.41900000  0.34577113  0.41900000   0.00
0.41900000  0.34825870  0.41900000   0.00
0.41900000  0.35074627  0.41900000   0.00
0.41900000  0.35323381  0.41900000   0.00
0.41900000  0.35572138  0.41900000   0.00
0.41900000  0.35820895  0.41900000   0.00
0.41900000  0.36069649  0.41900000   0.00
0.41900000  0.36318406  0.41900000   0.00
0.41900000  0.36567163  0.41900000   0.00
0.41900000  0.36815920  0.41900000   0.00
0.41900000  0.37064674  0.41900000   0.00
0.41900000  0.37313432  0.41900000   0.00
0.41900000  0.37562189  0.41900000   0.00
0.41900000  0.37810946  0.41900000   0.00
0.41900000  0.38059700  0.41900000   0.00
0.41900000  0.38308457  0.41900000   0.00
0.41900000  0.38557214  0.41900000   0.00
0.41900000  0.38805971  0.41900000   0.00
0.41900000  0.39054725  0.41900000   0.00
0.41900000  0.39303482  0.41900000   0.00
0.41900000  0.39552239  0.41900000   0.00
0.41900000  0.39800996  0.41900000   0.00
0.41900000  0.40049750  0.41900000   0.00
0.41900000  0.40298507  0.41900000   0.00
0.41900000  0.40547264  0.41900000   0.00
0.41900000  0.40796018  0.41900000   0.00
0.41900000  0.41044775  0.41900000   0.00
0.41900000  0.41293532  0.41900000   0.00
0.41900000  0.41542289  0.41900000   0.00
0.41900000  0.41791043  0.41900000   0.00
0.41900000  0.42039800  0.41900000   0.00
0.41900000  0.42288557  0.41900000   0.00
0.41900000  0.42537314  0.41900000   0.00
0.41900000  0.42786068  0.41900000   0.00
0.41900000  0.43034825  0.41900000   0.00
0.41900000  0.43283582  0.41900000   0.00
0.41900000  0.43532339  0.41900000   0.00
0.41900000  0.43781093  0.41900000   0.00
0.41900000  0.44029850  0.41900000   0.00
0.41900000  0.44278607  0.41900000   0.00
0.41900000  0.44527361  0.41900000   0.00
0.41900000  0.44776118  0.41900000   0.00
0.41900000  0.45024875  0.41900000   0.00
0.41900000  0.45273632  0.41900000   0.00
0.41900000  0.45522386  0.41900000   0.00
0.41900000  0.45771143  0.41900000   0.00
0.41900000  0.46019900  0.41900000   0.00
0.41900000  0.46268657  0.41900000   0.00
0.41900000  0.46517411  0.41900000   0.00
0.41900000  0.46766168  0.41900000   0.00
0.41900000  0.47014925  0.41900000   0.00
0.41900000  0.47263682  0.41900000   0.00
0.41900000  0.47512436  0.41900000   0.00
0.41900000  0.47761193  0.41900000   0.00
0.41900000  0.48009950  0.41900000   0.00
0.41900000  0.48258704  0.41900000   0.00
0.41900000  0.48507461  0.41900000   0.00
0.41900000  0.48756218  0.41900000   0.00
0.41900000  0.49004975  0.41900000   0.00
0.41900000  0.49253729  0.41900000   0.00
0.41900000  0.49502486  0.41900000   0.00
0.41900000  0.49751243  0.41900000   0.00
0.41900000  0.50000000  0.41900000   0.00
