C N H Pb I
   1.0
    12.5768374277686394    0.0019159116494978    0.1381987933539664
     0.0011956322447466   12.4575380825249127   -0.0007464134870236
     0.1394107043392118    0.0000890449825412   12.7474206252920563
C   N   H  Pb   I
   8    8   48    8   24
Direct
  0.1973158111704792  0.2498829384634642  0.2287699589722398
  0.6966724536548168  0.2499336117651443  0.2290607497088541
  0.1966724536548168  0.7499336117651444  0.2290607497088541
  0.6973158111704791  0.7498829384634640  0.2287699589722397
  0.1966724536548168  0.2499336117651443  0.7290607497088541
  0.6973158111704792  0.2498829384634642  0.7287699589722397
  0.1973158111704792  0.7498829384634642  0.7287699589722397
  0.6966724536548167  0.7499336117651444  0.7290607497088540
  0.3075115101404690  0.2499873646025303  0.2677742755952823
  0.8015629276929659  0.2500199166306363  0.2799943173533248
  0.3015629276929659  0.7500199166306362  0.2799943173533248
  0.8075115101404688  0.7499873646025303  0.2677742755952824
  0.3015629276929659  0.2500199166306363  0.7799943173533248
  0.8075115101404687  0.2499873646025303  0.7677742755952824
  0.3075115101404689  0.7499873646025302  0.7677742755952824
  0.8015629276929657  0.7500199166306363  0.7799943173533248
  0.2004610911261042  0.2497958870424952  0.1423923737116757
  0.7096892433474019  0.2498463056055656  0.1433848781817526
  0.2096892433474022  0.7498463056055656  0.1433848781817526
  0.7004610911261041  0.7497958870424950  0.1423923737116757
  0.2096892433474022  0.2498463056055656  0.6433848781817526
  0.7004610911261041  0.2497958870424952  0.6423923737116758
  0.2004610911261042  0.7497958870424950  0.6423923737116758
  0.7096892433474021  0.7498463056055656  0.6433848781817526
  0.1560206027842224  0.3222903946960060  0.2576145289449265
  0.6526550105726245  0.3224139786847487  0.2534161095477082
  0.1526550105726246  0.8224139786847487  0.2534161095477082
  0.6560206027842226  0.8222903946960060  0.2576145289449265
  0.1526550105726246  0.3224139786847487  0.7534161095477082
  0.6560206027842223  0.3222903946960059  0.7576145289449265
  0.1560206027842224  0.8222903946960060  0.7576145289449265
  0.6526550105726244  0.8224139786847487  0.7534161095477081
  0.1561469881169250  0.1774786466519719  0.2577448349187086
  0.6527386791615420  0.1774735002983528  0.2535565785019167
  0.1527386791615421  0.6774735002983526  0.2535565785019167
  0.6561469881169247  0.6774786466519719  0.2577448349187086
  0.1527386791615422  0.1774735002983528  0.7535565785019167
  0.6561469881169248  0.1774786466519719  0.7577448349187086
  0.1561469881169250  0.6774786466519719  0.7577448349187086
  0.6527386791615420  0.6774735002983526  0.7535565785019167
  0.3499314772671400  0.3178262814855889  0.2424155439026556
  0.8463376774862690  0.3179222843288566  0.2590974380638223
  0.3463376774862691  0.8179222843288565  0.2590974380638223
  0.8499314772671398  0.8178262814855889  0.2424155439026556
  0.3463376774862691  0.3179222843288566  0.7590974380638223
  0.8499314772671398  0.3178262814855889  0.7424155439026556
  0.3499314772671400  0.8178262814855888  0.7424155439026556
  0.8463376774862689  0.8179222843288566  0.7590974380638222
  0.3500276484886970  0.1821381818546949  0.2425276150750107
  0.8463829520183817  0.1820715930879705  0.2592541845801166
  0.3463829520183818  0.6820715930879706  0.2592541845801166
  0.8500276484886968  0.6821381818546948  0.2425276150750107
  0.3463829520183819  0.1820715930879705  0.7592541845801166
  0.8500276484886968  0.1821381818546948  0.7425276150750106
  0.3500276484886971  0.6821381818546948  0.7425276150750105
  0.8463829520183817  0.6820715930879706  0.7592541845801166
  0.3112184287173313  0.2500600139369914  0.3496851248143871
  0.7951217172286964  0.2501270295019502  0.3615333645252773
  0.2951217172286967  0.7501270295019502  0.3615333645252773
  0.8112184287173312  0.7500600139369915  0.3496851248143871
  0.2951217172286967  0.2501270295019502  0.8615333645252774
  0.8112184287173312  0.2500600139369915  0.8496851248143872
  0.3112184287173313  0.7500600139369916  0.8496851248143872
  0.7951217172286964  0.7501270295019502  0.8615333645252774
  0.4724402325073780  0.4991949785144380  0.4888093330495663
  0.9724433194503447  0.5007846112154302  0.4888135609800416
  0.4724433194503449  0.0007846112154302  0.4888135609800416
  0.9724402325073779  0.9991949785144381  0.4888093330495663
  0.4724433194503448  0.5007846112154301  0.9888135609800418
  0.9724402325073779  0.4991949785144381  0.9888093330495664
  0.4724402325073780  0.9991949785144381  0.9888093330495663
  0.9724433194503447  0.0007846112154299  0.9888135609800417
  0.4547251172901568  0.5016363642348346  0.2375736822408218
  0.9547622313696448  0.4983457347897930  0.2375718016761677
  0.4547622313696449  0.9983457347897929  0.2375718016761677
  0.9547251172901566  0.0016363642348347  0.2375736822408218
  0.4547622313696449  0.4983457347897930  0.7375718016761675
  0.9547251172901567  0.5016363642348347  0.7375736822408220
  0.4547251172901568  0.0016363642348345  0.7375736822408220
  0.9547622313696449  0.9983457347897929  0.7375718016761675
  0.4618347455535723  0.2499760801570249  0.0112872021837097
  0.9374361335742181  0.2499819409340573  0.0123772332847091
  0.4374361335742181  0.7499819409340571  0.0123772332847091
  0.9618347455535722  0.7499760801570248  0.0112872021837097
  0.4374361335742181  0.2499819409340572  0.5123772332847091
  0.9618347455535723  0.2499760801570249  0.5112872021837097
  0.4618347455535723  0.7499760801570248  0.5112872021837097
  0.9374361335742180  0.7499819409340571  0.5123772332847091
  0.2161684151868061  0.5139913337896159  0.4612543119727670
  0.7161744616937691  0.4860035389279277  0.4612250917144456
  0.2161744616937693  0.9860035389279276  0.4612250917144456
  0.7161684151868061  0.0139913337896158  0.4612543119727670
  0.2161744616937693  0.4860035389279277  0.9612250917144456
  0.7161684151868061  0.5139913337896158  0.9612543119727670
  0.2161684151868061  0.0139913337896156  0.9612543119727672
  0.7161744616937692  0.9860035389279276  0.9612250917144456
