Automatically generated mesh
      5905
Reciprocal lattice
    0.00000000000000    0.00000000000000    0.00000000000000             1
    0.16666666666667    0.00000000000000    0.00000000000000             8
    0.33333333333333    0.00000000000000    0.00000000000000             8
    0.50000000000000    0.00000000000000    0.00000000000000             4
    0.16666666666667    0.16666666666667    0.00000000000000             6
    0.33333333333333    0.16666666666667    0.00000000000000            24
    0.50000000000000    0.16666666666667    0.00000000000000            24
   -0.33333333333333    0.16666666666667    0.00000000000000            24
   -0.16666666666667    0.16666666666667    0.00000000000000            12
    0.33333333333333    0.33333333333333    0.00000000000000             6
    0.50000000000000    0.33333333333333    0.00000000000000            24
   -0.33333333333333    0.33333333333333    0.00000000000000            12
    0.50000000000000    0.50000000000000    0.00000000000000             3
    0.50000000000000    0.33333333333333    0.16666666666667            24
   -0.33333333333333    0.33333333333333    0.16666666666667            24
   -0.33333333333333    0.50000000000000    0.16666666666667            12
0.00000000  0.00000000  0.00000000   0.00
0.00050000  0.00000000  0.00050000   0.00
0.00100000  0.00000000  0.00100000   0.00
0.00150000  0.00000000  0.00150000   0.00
0.00200000  0.00000000  0.00200000   0.00
0.00250000  0.00000000  0.00250000   0.00
0.00300000  0.00000000  0.00300000   0.00
0.00350000  0.00000000  0.00350000   0.00
0.00400000  0.00000000  0.00400000   0.00
0.00450000  0.00000000  0.00450000   0.00
0.00500000  0.00000000  0.00500000   0.00
0.00550000  0.00000000  0.00550000   0.00
0.00600000  0.00000000  0.00600000   0.00
0.00650000  0.00000000  0.00650000   0.00
0.00700000  0.00000000  0.00700000   0.00
0.00750000  0.00000000  0.00750000   0.00
0.00800000  0.00000000  0.00800000   0.00
0.00850000  0.00000000  0.00850000   0.00
0.00900000  0.00000000  0.00900000   0.00
0.00950000  0.00000000  0.00950000   0.00
0.01000000  0.00000000  0.01000000   0.00
0.01050000  0.00000000  0.01050000   0.00
0.01100000  0.00000000  0.01100000   0.00
0.01150000  0.00000000  0.01150000   0.00
0.01200000  0.00000000  0.01200000   0.00
0.01250000  0.00000000  0.01250000   0.00
0.01300000  0.00000000  0.01300000   0.00
0.01350000  0.00000000  0.01350000   0.00
0.01400000  0.00000000  0.01400000   0.00
0.01450000  0.00000000  0.01450000   0.00
0.01500000  0.00000000  0.01500000   0.00
0.01550000  0.00000000  0.01550000   0.00
0.01600000  0.00000000  0.01600000   0.00
0.01650000  0.00000000  0.01650000   0.00
0.01700000  0.00000000  0.01700000   0.00
0.01750000  0.00000000  0.01750000   0.00
0.01800000  0.00000000  0.01800000   0.00
0.01850000  0.00000000  0.01850000   0.00
0.01900000  0.00000000  0.01900000   0.00
0.01950000  0.00000000  0.01950000   0.00
0.02000000  0.00000000  0.02000000   0.00
0.02050000  0.00000000  0.02050000   0.00
0.02100000  0.00000000  0.02100000   0.00
0.02150000  0.00000000  0.02150000   0.00
0.02200000  0.00000000  0.02200000   0.00
0.02250000  0.00000000  0.02250000   0.00
0.02300000  0.00000000  0.02300000   0.00
0.02350000  0.00000000  0.02350000   0.00
0.02400000  0.00000000  0.02400000   0.00
0.02450000  0.00000000  0.02450000   0.00
0.02500000  0.00000000  0.02500000   0.00
0.02550000  0.00000000  0.02550000   0.00
0.02600000  0.00000000  0.02600000   0.00
0.02650000  0.00000000  0.02650000   0.00
0.02700000  0.00000000  0.02700000   0.00
0.02750000  0.00000000  0.02750000   0.00
0.02800000  0.00000000  0.02800000   0.00
0.02850000  0.00000000  0.02850000   0.00
0.02900000  0.00000000  0.02900000   0.00
0.02950000  0.00000000  0.02950000   0.00
0.03000000  0.00000000  0.03000000   0.00
0.03050000  0.00000000  0.03050000   0.00
0.03100000  0.00000000  0.03100000   0.00
0.03150000  0.00000000  0.03150000   0.00
0.03200000  0.00000000  0.03200000   0.00
0.03250000  0.00000000  0.03250000   0.00
0.03300000  0.00000000  0.03300000   0.00
0.03350000  0.00000000  0.03350000   0.00
0.03400000  0.00000000  0.03400000   0.00
0.03450000  0.00000000  0.03450000   0.00
0.03500000  0.00000000  0.03500000   0.00
0.03550000  0.00000000  0.03550000   0.00
0.03600000  0.00000000  0.03600000   0.00
0.03650000  0.00000000  0.03650000   0.00
0.03700000  0.00000000  0.03700000   0.00
0.03750000  0.00000000  0.03750000   0.00
0.03800000  0.00000000  0.03800000   0.00
0.03850000  0.00000000  0.03850000   0.00
0.03900000  0.00000000  0.03900000   0.00
0.03950000  0.00000000  0.03950000   0.00
0.04000000  0.00000000  0.04000000   0.00
0.04050000  0.00000000  0.04050000   0.00
0.04100000  0.00000000  0.04100000   0.00
0.04150000  0.00000000  0.04150000   0.00
0.04200000  0.00000000  0.04200000   0.00
0.04250000  0.00000000  0.04250000   0.00
0.04300000  0.00000000  0.04300000   0.00
0.04350000  0.00000000  0.04350000   0.00
0.04400000  0.00000000  0.04400000   0.00
0.04450000  0.00000000  0.04450000   0.00
0.04500000  0.00000000  0.04500000   0.00
0.04550000  0.00000000  0.04550000   0.00
0.04600000  0.00000000  0.04600000   0.00
0.04650000  0.00000000  0.04650000   0.00
0.04700000  0.00000000  0.04700000   0.00
0.04750000  0.00000000  0.04750000   0.00
0.04800000  0.00000000  0.04800000   0.00
0.04850000  0.00000000  0.04850000   0.00
0.04900000  0.00000000  0.04900000   0.00
0.04950000  0.00000000  0.04950000   0.00
0.05000000  0.00000000  0.05000000   0.00
0.05050000  0.00000000  0.05050000   0.00
0.05100000  0.00000000  0.05100000   0.00
0.05150000  0.00000000  0.05150000   0.00
0.05200000  0.00000000  0.05200000   0.00
0.05250000  0.00000000  0.05250000   0.00
0.05300000  0.00000000  0.05300000   0.00
0.05350000  0.00000000  0.05350000   0.00
0.05400000  0.00000000  0.05400000   0.00
0.05450000  0.00000000  0.05450000   0.00
0.05500000  0.00000000  0.05500000   0.00
0.05550000  0.00000000  0.05550000   0.00
0.05600000  0.00000000  0.05600000   0.00
0.05650000  0.00000000  0.05650000   0.00
0.05700000  0.00000000  0.05700000   0.00
0.05750000  0.00000000  0.05750000   0.00
0.05800000  0.00000000  0.05800000   0.00
0.05850000  0.00000000  0.05850000   0.00
0.05900000  0.00000000  0.05900000   0.00
0.05950000  0.00000000  0.05950000   0.00
0.06000000  0.00000000  0.06000000   0.00
0.06050000  0.00000000  0.06050000   0.00
0.06100000  0.00000000  0.06100000   0.00
0.06150000  0.00000000  0.06150000   0.00
0.06200000  0.00000000  0.06200000   0.00
0.06250000  0.00000000  0.06250000   0.00
0.06300000  0.00000000  0.06300000   0.00
0.06350000  0.00000000  0.06350000   0.00
0.06400000  0.00000000  0.06400000   0.00
0.06450000  0.00000000  0.06450000   0.00
0.06500001  0.00000000  0.06500001   0.00
0.06550000  0.00000000  0.06550000   0.00
0.06600000  0.00000000  0.06600000   0.00
0.06650000  0.00000000  0.06650000   0.00
0.06700000  0.00000000  0.06700000   0.00
0.06750000  0.00000000  0.06750000   0.00
0.06800000  0.00000000  0.06800000   0.00
0.06850000  0.00000000  0.06850000   0.00
0.06900001  0.00000000  0.06900001   0.00
0.06950000  0.00000000  0.06950000   0.00
0.07000000  0.00000000  0.07000000   0.00
0.07050000  0.00000000  0.07050000   0.00
0.07100000  0.00000000  0.07100000   0.00
0.07150000  0.00000000  0.07150000   0.00
0.07200000  0.00000000  0.07200000   0.00
0.07250001  0.00000000  0.07250001   0.00
0.07300000  0.00000000  0.07300000   0.00
0.07350000  0.00000000  0.07350000   0.00
0.07400000  0.00000000  0.07400000   0.00
0.07450000  0.00000000  0.07450000   0.00
0.07500000  0.00000000  0.07500000   0.00
0.07550000  0.00000000  0.07550000   0.00
0.07600000  0.00000000  0.07600000   0.00
0.07650001  0.00000000  0.07650001   0.00
0.07700000  0.00000000  0.07700000   0.00
0.07750000  0.00000000  0.07750000   0.00
0.07800000  0.00000000  0.07800000   0.00
0.07850000  0.00000000  0.07850000   0.00
0.07900000  0.00000000  0.07900000   0.00
0.07950000  0.00000000  0.07950000   0.00
0.08000000  0.00000000  0.08000000   0.00
0.08050000  0.00000000  0.08050000   0.00
0.08100000  0.00000000  0.08100000   0.00
0.08150000  0.00000000  0.08150000   0.00
0.08200000  0.00000000  0.08200000   0.00
0.08250000  0.00000000  0.08250000   0.00
0.08300000  0.00000000  0.08300000   0.00
0.08350000  0.00000000  0.08350000   0.00
0.08400001  0.00000000  0.08400001   0.00
0.08450000  0.00000000  0.08450000   0.00
0.08500000  0.00000000  0.08500000   0.00
0.08550000  0.00000000  0.08550000   0.00
0.08600000  0.00000000  0.08600000   0.00
0.08650000  0.00000000  0.08650000   0.00
0.08700000  0.00000000  0.08700000   0.00
0.08750000  0.00000000  0.08750000   0.00
0.08800000  0.00000000  0.08800000   0.00
0.08850001  0.00000000  0.08850001   0.00
0.08900001  0.00000000  0.08900001   0.00
0.08950000  0.00000000  0.08950000   0.00
0.09000000  0.00000000  0.09000000   0.00
0.09050000  0.00000000  0.09050000   0.00
0.09100000  0.00000000  0.09100000   0.00
0.09150000  0.00000000  0.09150000   0.00
0.09200000  0.00000000  0.09200000   0.00
0.09250001  0.00000000  0.09250001   0.00
0.09300000  0.00000000  0.09300000   0.00
0.09350000  0.00000000  0.09350000   0.00
0.09400000  0.00000000  0.09400000   0.00
0.09450000  0.00000000  0.09450000   0.00
0.09500000  0.00000000  0.09500000   0.00
0.09550000  0.00000000  0.09550000   0.00
0.09600001  0.00000000  0.09600001   0.00
0.09650000  0.00000000  0.09650000   0.00
0.09700000  0.00000000  0.09700000   0.00
0.09750000  0.00000000  0.09750000   0.00
0.09800000  0.00000000  0.09800000   0.00
0.09850000  0.00000000  0.09850000   0.00
0.09900000  0.00000000  0.09900000   0.00
0.09950000  0.00000000  0.09950000   0.00
0.10000001  0.00000000  0.10000001   0.00
0.10050000  0.00000000  0.10050000   0.00
0.10100000  0.00000000  0.10100000   0.00
0.10150000  0.00000000  0.10150000   0.00
0.10200000  0.00000000  0.10200000   0.00
0.10250000  0.00000000  0.10250000   0.00
0.10300000  0.00000000  0.10300000   0.00
0.10349999  0.00000000  0.10349999   0.00
0.10400000  0.00000000  0.10400000   0.00
0.10450000  0.00000000  0.10450000   0.00
0.10500000  0.00000000  0.10500000   0.00
0.10550001  0.00000000  0.10550001   0.00
0.10600000  0.00000000  0.10600000   0.00
0.10650000  0.00000000  0.10650000   0.00
0.10700000  0.00000000  0.10700000   0.00
0.10750001  0.00000000  0.10750001   0.00
0.10800000  0.00000000  0.10800000   0.00
0.10850000  0.00000000  0.10850000   0.00
0.10900000  0.00000000  0.10900000   0.00
0.10950000  0.00000000  0.10950000   0.00
0.11000000  0.00000000  0.11000000   0.00
0.11050000  0.00000000  0.11050000   0.00
0.11099999  0.00000000  0.11099999   0.00
0.11150000  0.00000000  0.11150000   0.00
0.11200000  0.00000000  0.11200000   0.00
0.11250000  0.00000000  0.11250000   0.00
0.11300001  0.00000000  0.11300001   0.00
0.11350000  0.00000000  0.11350000   0.00
0.11400000  0.00000000  0.11400000   0.00
0.11450000  0.00000000  0.11450000   0.00
0.11500001  0.00000000  0.11500001   0.00
0.11550000  0.00000000  0.11550000   0.00
0.11600000  0.00000000  0.11600000   0.00
0.11650001  0.00000000  0.11650001   0.00
0.11700000  0.00000000  0.11700000   0.00
0.11750000  0.00000000  0.11750000   0.00
0.11800000  0.00000000  0.11800000   0.00
0.11849999  0.00000000  0.11849999   0.00
0.11900000  0.00000000  0.11900000   0.00
0.11950000  0.00000000  0.11950000   0.00
0.12000000  0.00000000  0.12000000   0.00
0.12050000  0.00000000  0.12050000   0.00
0.12100000  0.00000000  0.12100000   0.00
0.12150000  0.00000000  0.12150000   0.00
0.12200000  0.00000000  0.12200000   0.00
0.12250001  0.00000000  0.12250001   0.00
0.12300000  0.00000000  0.12300000   0.00
0.12350000  0.00000000  0.12350000   0.00
0.12400001  0.00000000  0.12400001   0.00
0.12450000  0.00000000  0.12450000   0.00
0.12500000  0.00000000  0.12500000   0.00
0.12549999  0.00000000  0.12549999   0.00
0.12600000  0.00000000  0.12600000   0.00
0.12650001  0.00000000  0.12650001   0.00
0.12700000  0.00000000  0.12700000   0.00
0.12750000  0.00000000  0.12750000   0.00
0.12800001  0.00000000  0.12800001   0.00
0.12850000  0.00000000  0.12850000   0.00
0.12899999  0.00000000  0.12899999   0.00
0.12950000  0.00000000  0.12950000   0.00
0.13000001  0.00000000  0.13000001   0.00
0.13050000  0.00000000  0.13050000   0.00
0.13100000  0.00000000  0.13100000   0.00
0.13150001  0.00000000  0.13150001   0.00
0.13200000  0.00000000  0.13200000   0.00
0.13249999  0.00000000  0.13249999   0.00
0.13300000  0.00000000  0.13300000   0.00
0.13349999  0.00000000  0.13349999   0.00
0.13400000  0.00000000  0.13400000   0.00
0.13450001  0.00000000  0.13450001   0.00
0.13500001  0.00000000  0.13500001   0.00
0.13550000  0.00000000  0.13550000   0.00
0.13600001  0.00000000  0.13600001   0.00
0.13650000  0.00000000  0.13650000   0.00
0.13699999  0.00000000  0.13699999   0.00
0.13750000  0.00000000  0.13750000   0.00
0.13800001  0.00000000  0.13800001   0.00
0.13850001  0.00000000  0.13850001   0.00
0.13900000  0.00000000  0.13900000   0.00
0.13950001  0.00000000  0.13950001   0.00
0.14000000  0.00000000  0.14000000   0.00
0.14049999  0.00000000  0.14049999   0.00
0.14100000  0.00000000  0.14100000   0.00
0.14150001  0.00000000  0.14150001   0.00
0.14200000  0.00000000  0.14200000   0.00
0.14250000  0.00000000  0.14250000   0.00
0.14300001  0.00000000  0.14300001   0.00
0.14350000  0.00000000  0.14350000   0.00
0.14399999  0.00000000  0.14399999   0.00
0.14450000  0.00000000  0.14450000   0.00
0.14500001  0.00000000  0.14500001   0.00
0.14550000  0.00000000  0.14550000   0.00
0.14600000  0.00000000  0.14600000   0.00
0.14650001  0.00000000  0.14650001   0.00
0.14700000  0.00000000  0.14700000   0.00
0.14749999  0.00000000  0.14749999   0.00
0.14800000  0.00000000  0.14800000   0.00
0.14850000  0.00000000  0.14850000   0.00
0.14900000  0.00000000  0.14900000   0.00
0.14950001  0.00000000  0.14950001   0.00
0.15000001  0.00000000  0.15000001   0.00
0.15050000  0.00000000  0.15050000   0.00
0.15100001  0.00000000  0.15100001   0.00
0.15150000  0.00000000  0.15150000   0.00
0.15200000  0.00000000  0.15200000   0.00
0.15250000  0.00000000  0.15250000   0.00
0.15300001  0.00000000  0.15300001   0.00
0.15350001  0.00000000  0.15350001   0.00
0.15400000  0.00000000  0.15400000   0.00
0.15450001  0.00000000  0.15450001   0.00
0.15500000  0.00000000  0.15500000   0.00
0.15549999  0.00000000  0.15549999   0.00
0.15600000  0.00000000  0.15600000   0.00
0.15650001  0.00000000  0.15650001   0.00
0.15700001  0.00000000  0.15700001   0.00
0.15750000  0.00000000  0.15750000   0.00
0.15800001  0.00000000  0.15800001   0.00
0.15850000  0.00000000  0.15850000   0.00
0.15899999  0.00000000  0.15899999   0.00
0.15950000  0.00000000  0.15950000   0.00
0.16000000  0.00000000  0.16000000   0.00
0.16050000  0.00000000  0.16050000   0.00
0.16100000  0.00000000  0.16100000   0.00
0.16150001  0.00000000  0.16150001   0.00
0.16200000  0.00000000  0.16200000   0.00
0.16249999  0.00000000  0.16249999   0.00
0.16300000  0.00000000  0.16300000   0.00
0.16350000  0.00000000  0.16350000   0.00
0.16400000  0.00000000  0.16400000   0.00
0.16450001  0.00000000  0.16450001   0.00
0.16500001  0.00000000  0.16500001   0.00
0.16550000  0.00000000  0.16550000   0.00
0.16600001  0.00000000  0.16600001   0.00
0.16650000  0.00000000  0.16650000   0.00
0.16700000  0.00000000  0.16700000   0.00
0.16750000  0.00000000  0.16750000   0.00
0.16800001  0.00000000  0.16800001   0.00
0.16850001  0.00000000  0.16850001   0.00
0.16900000  0.00000000  0.16900000   0.00
0.16950001  0.00000000  0.16950001   0.00
0.17000000  0.00000000  0.17000000   0.00
0.17050000  0.00000000  0.17050000   0.00
0.17100000  0.00000000  0.17100000   0.00
0.17150001  0.00000000  0.17150001   0.00
0.17200001  0.00000000  0.17200001   0.00
0.17250000  0.00000000  0.17250000   0.00
0.17300001  0.00000000  0.17300001   0.00
0.17350000  0.00000000  0.17350000   0.00
0.17399999  0.00000000  0.17399999   0.00
0.17450000  0.00000000  0.17450000   0.00
0.17500000  0.00000000  0.17500000   0.00
0.17550001  0.00000000  0.17550001   0.00
0.17600000  0.00000000  0.17600000   0.00
0.17650001  0.00000000  0.17650001   0.00
0.17700002  0.00000000  0.17700002   0.00
0.17749999  0.00000000  0.17749999   0.00
0.17800002  0.00000000  0.17800002   0.00
0.17850000  0.00000000  0.17850000   0.00
0.17900001  0.00000000  0.17900001   0.00
0.17950000  0.00000000  0.17950000   0.00
0.18000001  0.00000000  0.18000001   0.00
0.18049999  0.00000000  0.18049999   0.00
0.18100001  0.00000000  0.18100001   0.00
0.18150002  0.00000000  0.18150002   0.00
0.18200000  0.00000000  0.18200000   0.00
0.18250000  0.00000000  0.18250000   0.00
0.18300000  0.00000000  0.18300000   0.00
0.18350001  0.00000000  0.18350001   0.00
0.18400000  0.00000000  0.18400000   0.00
0.18450001  0.00000000  0.18450001   0.00
0.18500002  0.00000000  0.18500002   0.00
0.18550000  0.00000000  0.18550000   0.00
0.18600000  0.00000000  0.18600000   0.00
0.18650000  0.00000000  0.18650000   0.00
0.18700001  0.00000000  0.18700001   0.00
0.18750000  0.00000000  0.18750000   0.00
0.18800001  0.00000000  0.18800001   0.00
0.18850002  0.00000000  0.18850002   0.00
0.18900000  0.00000000  0.18900000   0.00
0.18950000  0.00000000  0.18950000   0.00
0.19000000  0.00000000  0.19000000   0.00
0.19050001  0.00000000  0.19050001   0.00
0.19100000  0.00000000  0.19100000   0.00
0.19150001  0.00000000  0.19150001   0.00
0.19200002  0.00000000  0.19200002   0.00
0.19250000  0.00000000  0.19250000   0.00
0.19300000  0.00000000  0.19300000   0.00
0.19350000  0.00000000  0.19350000   0.00
0.19400001  0.00000000  0.19400001   0.00
0.19450000  0.00000000  0.19450000   0.00
0.19500001  0.00000000  0.19500001   0.00
0.19549999  0.00000000  0.19549999   0.00
0.19600001  0.00000000  0.19600001   0.00
0.19650002  0.00000000  0.19650002   0.00
0.19700000  0.00000000  0.19700000   0.00
0.19750001  0.00000000  0.19750001   0.00
0.19800000  0.00000000  0.19800000   0.00
0.19850001  0.00000000  0.19850001   0.00
0.19900000  0.00000000  0.19900000   0.00
0.19950001  0.00000000  0.19950001   0.00
0.20000002  0.00000000  0.20000002   0.00
0.20050000  0.00000000  0.20050000   0.00
0.20100001  0.00000000  0.20100001   0.00
0.20150000  0.00000000  0.20150000   0.00
0.20200001  0.00000000  0.20200001   0.00
0.20250000  0.00000000  0.20250000   0.00
0.20300001  0.00000000  0.20300001   0.00
0.20350002  0.00000000  0.20350002   0.00
0.20400000  0.00000000  0.20400000   0.00
0.20450000  0.00000000  0.20450000   0.00
0.20500000  0.00000000  0.20500000   0.00
0.20550001  0.00000000  0.20550001   0.00
0.20600000  0.00000000  0.20600000   0.00
0.20650001  0.00000000  0.20650001   0.00
0.20699999  0.00000000  0.20699999   0.00
0.20750000  0.00000000  0.20750000   0.00
0.20800000  0.00000000  0.20800000   0.00
0.20850000  0.00000000  0.20850000   0.00
0.20900001  0.00000000  0.20900001   0.00
0.20950000  0.00000000  0.20950000   0.00
0.21000001  0.00000000  0.21000001   0.00
0.21049999  0.00000000  0.21049999   0.00
0.21100001  0.00000000  0.21100001   0.00
0.21150002  0.00000000  0.21150002   0.00
0.21200000  0.00000000  0.21200000   0.00
0.21250001  0.00000000  0.21250001   0.00
0.21300000  0.00000000  0.21300000   0.00
0.21350001  0.00000000  0.21350001   0.00
0.21400000  0.00000000  0.21400000   0.00
0.21450001  0.00000000  0.21450001   0.00
0.21500002  0.00000000  0.21500002   0.00
0.21550000  0.00000000  0.21550000   0.00
0.21600001  0.00000000  0.21600001   0.00
0.21650000  0.00000000  0.21650000   0.00
0.21700001  0.00000000  0.21700001   0.00
0.21750000  0.00000000  0.21750000   0.00
0.21800001  0.00000000  0.21800001   0.00
0.21850002  0.00000000  0.21850002   0.00
0.21900000  0.00000000  0.21900000   0.00
0.21950001  0.00000000  0.21950001   0.00
0.22000000  0.00000000  0.22000000   0.00
0.22050001  0.00000000  0.22050001   0.00
0.22100000  0.00000000  0.22100000   0.00
0.22150001  0.00000000  0.22150001   0.00
0.22199999  0.00000000  0.22199999   0.00
0.22250000  0.00000000  0.22250000   0.00
0.22300000  0.00000000  0.22300000   0.00
0.22350000  0.00000000  0.22350000   0.00
0.22400001  0.00000000  0.22400001   0.00
0.22450000  0.00000000  0.22450000   0.00
0.22500001  0.00000000  0.22500001   0.00
0.22549999  0.00000000  0.22549999   0.00
0.22600001  0.00000000  0.22600001   0.00
0.22650002  0.00000000  0.22650002   0.00
0.22700000  0.00000000  0.22700000   0.00
0.22750001  0.00000000  0.22750001   0.00
0.22800000  0.00000000  0.22800000   0.00
0.22850001  0.00000000  0.22850001   0.00
0.22900000  0.00000000  0.22900000   0.00
0.22950001  0.00000000  0.22950001   0.00
0.23000002  0.00000000  0.23000002   0.00
0.23050000  0.00000000  0.23050000   0.00
0.23100001  0.00000000  0.23100001   0.00
0.23150000  0.00000000  0.23150000   0.00
0.23200001  0.00000000  0.23200001   0.00
0.23250000  0.00000000  0.23250000   0.00
0.23300001  0.00000000  0.23300001   0.00
0.23350002  0.00000000  0.23350002   0.00
0.23400000  0.00000000  0.23400000   0.00
0.23450001  0.00000000  0.23450001   0.00
0.23500000  0.00000000  0.23500000   0.00
0.23550001  0.00000000  0.23550001   0.00
0.23600000  0.00000000  0.23600000   0.00
0.23650001  0.00000000  0.23650001   0.00
0.23699999  0.00000000  0.23699999   0.00
0.23750000  0.00000000  0.23750000   0.00
0.23800001  0.00000000  0.23800001   0.00
0.23850000  0.00000000  0.23850000   0.00
0.23900001  0.00000000  0.23900001   0.00
0.23950000  0.00000000  0.23950000   0.00
0.24000001  0.00000000  0.24000001   0.00
0.24049999  0.00000000  0.24049999   0.00
0.24100000  0.00000000  0.24100000   0.00
0.24150002  0.00000000  0.24150002   0.00
0.24200000  0.00000000  0.24200000   0.00
0.24250001  0.00000000  0.24250001   0.00
0.24300000  0.00000000  0.24300000   0.00
0.24350001  0.00000000  0.24350001   0.00
0.24400000  0.00000000  0.24400000   0.00
0.24450001  0.00000000  0.24450001   0.00
0.24500002  0.00000000  0.24500002   0.00
0.24550000  0.00000000  0.24550000   0.00
0.24600001  0.00000000  0.24600001   0.00
0.24650000  0.00000000  0.24650000   0.00
0.24700001  0.00000000  0.24700001   0.00
0.24750000  0.00000000  0.24750000   0.00
0.24800001  0.00000000  0.24800001   0.00
0.24850002  0.00000000  0.24850002   0.00
0.24900000  0.00000000  0.24900000   0.00
0.24950001  0.00000000  0.24950001   0.00
0.25000000  0.00000000  0.25000000   0.00
0.25050002  0.00000000  0.25050002   0.00
0.25099999  0.00000000  0.25099999   0.00
0.25150001  0.00000000  0.25150001   0.00
0.25200000  0.00000000  0.25200000   0.00
0.25250000  0.00000000  0.25250000   0.00
0.25300002  0.00000000  0.25300002   0.00
0.25350001  0.00000000  0.25350001   0.00
0.25400001  0.00000000  0.25400001   0.00
0.25450000  0.00000000  0.25450000   0.00
0.25500000  0.00000000  0.25500000   0.00
0.25549999  0.00000000  0.25549999   0.00
0.25600001  0.00000000  0.25600001   0.00
0.25650001  0.00000000  0.25650001   0.00
0.25700000  0.00000000  0.25700000   0.00
0.25750002  0.00000000  0.25750002   0.00
0.25799999  0.00000000  0.25799999   0.00
0.25850001  0.00000000  0.25850001   0.00
0.25900000  0.00000000  0.25900000   0.00
0.25950000  0.00000000  0.25950000   0.00
0.26000002  0.00000000  0.26000002   0.00
0.26050001  0.00000000  0.26050001   0.00
0.26100001  0.00000000  0.26100001   0.00
0.26150000  0.00000000  0.26150000   0.00
0.26199999  0.00000000  0.26199999   0.00
0.26249999  0.00000000  0.26249999   0.00
0.26300001  0.00000000  0.26300001   0.00
0.26350001  0.00000000  0.26350001   0.00
0.26400000  0.00000000  0.26400000   0.00
0.26450002  0.00000000  0.26450002   0.00
0.26499999  0.00000000  0.26499999   0.00
0.26550001  0.00000000  0.26550001   0.00
0.26600000  0.00000000  0.26600000   0.00
0.26650000  0.00000000  0.26650000   0.00
0.26699999  0.00000000  0.26699999   0.00
0.26750001  0.00000000  0.26750001   0.00
0.26800001  0.00000000  0.26800001   0.00
0.26850000  0.00000000  0.26850000   0.00
0.26900002  0.00000000  0.26900002   0.00
0.26949999  0.00000000  0.26949999   0.00
0.27000001  0.00000000  0.27000001   0.00
0.27050000  0.00000000  0.27050000   0.00
0.27100000  0.00000000  0.27100000   0.00
0.27150002  0.00000000  0.27150002   0.00
0.27200001  0.00000000  0.27200001   0.00
0.27250001  0.00000000  0.27250001   0.00
0.27300000  0.00000000  0.27300000   0.00
0.27350000  0.00000000  0.27350000   0.00
0.27399999  0.00000000  0.27399999   0.00
0.27450001  0.00000000  0.27450001   0.00
0.27500001  0.00000000  0.27500001   0.00
0.27550000  0.00000000  0.27550000   0.00
0.27600002  0.00000000  0.27600002   0.00
0.27649999  0.00000000  0.27649999   0.00
0.27700001  0.00000000  0.27700001   0.00
0.27750000  0.00000000  0.27750000   0.00
0.27800000  0.00000000  0.27800000   0.00
0.27849999  0.00000000  0.27849999   0.00
0.27900001  0.00000000  0.27900001   0.00
0.27950001  0.00000000  0.27950001   0.00
0.28000000  0.00000000  0.28000000   0.00
0.28050002  0.00000000  0.28050002   0.00
0.28099999  0.00000000  0.28099999   0.00
0.28150001  0.00000000  0.28150001   0.00
0.28200001  0.00000000  0.28200001   0.00
0.28250000  0.00000000  0.28250000   0.00
0.28300002  0.00000000  0.28300002   0.00
0.28350002  0.00000000  0.28350002   0.00
0.28400001  0.00000000  0.28400001   0.00
0.28450000  0.00000000  0.28450000   0.00
0.28500000  0.00000000  0.28500000   0.00
0.28549999  0.00000000  0.28549999   0.00
0.28600001  0.00000000  0.28600001   0.00
0.28650001  0.00000000  0.28650001   0.00
0.28700000  0.00000000  0.28700000   0.00
0.28750002  0.00000000  0.28750002   0.00
0.28799999  0.00000000  0.28799999   0.00
0.28850001  0.00000000  0.28850001   0.00
0.28900000  0.00000000  0.28900000   0.00
0.28950000  0.00000000  0.28950000   0.00
0.29000002  0.00000000  0.29000002   0.00
0.29050002  0.00000000  0.29050002   0.00
0.29100001  0.00000000  0.29100001   0.00
0.29150000  0.00000000  0.29150000   0.00
0.29200000  0.00000000  0.29200000   0.00
0.29249999  0.00000000  0.29249999   0.00
0.29300001  0.00000000  0.29300001   0.00
0.29350001  0.00000000  0.29350001   0.00
0.29400000  0.00000000  0.29400000   0.00
0.29450002  0.00000000  0.29450002   0.00
0.29499999  0.00000000  0.29499999   0.00
0.29550001  0.00000000  0.29550001   0.00
0.29600000  0.00000000  0.29600000   0.00
0.29650000  0.00000000  0.29650000   0.00
0.29699999  0.00000000  0.29699999   0.00
0.29750001  0.00000000  0.29750001   0.00
0.29800001  0.00000000  0.29800001   0.00
0.29850000  0.00000000  0.29850000   0.00
0.29900002  0.00000000  0.29900002   0.00
0.29949999  0.00000000  0.29949999   0.00
0.30000001  0.00000000  0.30000001   0.00
0.30050001  0.00000000  0.30050001   0.00
0.30100000  0.00000000  0.30100000   0.00
0.30150002  0.00000000  0.30150002   0.00
0.30200002  0.00000000  0.30200002   0.00
0.30250001  0.00000000  0.30250001   0.00
0.30300000  0.00000000  0.30300000   0.00
0.30350000  0.00000000  0.30350000   0.00
0.30399999  0.00000000  0.30399999   0.00
0.30450001  0.00000000  0.30450001   0.00
0.30500001  0.00000000  0.30500001   0.00
0.30550000  0.00000000  0.30550000   0.00
0.30600002  0.00000000  0.30600002   0.00
0.30649999  0.00000000  0.30649999   0.00
0.30700001  0.00000000  0.30700001   0.00
0.30750000  0.00000000  0.30750000   0.00
0.30800000  0.00000000  0.30800000   0.00
0.30849999  0.00000000  0.30849999   0.00
0.30900002  0.00000000  0.30900002   0.00
0.30950001  0.00000000  0.30950001   0.00
0.31000000  0.00000000  0.31000000   0.00
0.31050000  0.00000000  0.31050000   0.00
0.31099999  0.00000000  0.31099999   0.00
0.31150001  0.00000000  0.31150001   0.00
0.31200001  0.00000000  0.31200001   0.00
0.31250000  0.00000000  0.31250000   0.00
0.31300002  0.00000000  0.31300002   0.00
0.31350002  0.00000000  0.31350002   0.00
0.31400001  0.00000000  0.31400001   0.00
0.31450000  0.00000000  0.31450000   0.00
0.31500000  0.00000000  0.31500000   0.00
0.31549999  0.00000000  0.31549999   0.00
0.31600001  0.00000000  0.31600001   0.00
0.31650001  0.00000000  0.31650001   0.00
0.31700000  0.00000000  0.31700000   0.00
0.31750003  0.00000000  0.31750003   0.00
0.31799999  0.00000000  0.31799999   0.00
0.31850001  0.00000000  0.31850001   0.00
0.31900001  0.00000000  0.31900001   0.00
0.31950000  0.00000000  0.31950000   0.00
0.31999999  0.00000000  0.31999999   0.00
0.32050002  0.00000000  0.32050002   0.00
0.32100001  0.00000000  0.32100001   0.00
0.32150000  0.00000000  0.32150000   0.00
0.32200000  0.00000000  0.32200000   0.00
0.32249999  0.00000000  0.32249999   0.00
0.32300001  0.00000000  0.32300001   0.00
0.32350001  0.00000000  0.32350001   0.00
0.32400000  0.00000000  0.32400000   0.00
0.32450002  0.00000000  0.32450002   0.00
0.32499999  0.00000000  0.32499999   0.00
0.32550001  0.00000000  0.32550001   0.00
0.32600001  0.00000000  0.32600001   0.00
0.32650000  0.00000000  0.32650000   0.00
0.32699999  0.00000000  0.32699999   0.00
0.32750002  0.00000000  0.32750002   0.00
0.32800001  0.00000000  0.32800001   0.00
0.32850000  0.00000000  0.32850000   0.00
0.32900003  0.00000000  0.32900003   0.00
0.32949999  0.00000000  0.32949999   0.00
0.33000001  0.00000000  0.33000001   0.00
0.33050001  0.00000000  0.33050001   0.00
0.33100000  0.00000000  0.33100000   0.00
0.33150002  0.00000000  0.33150002   0.00
0.33200002  0.00000000  0.33200002   0.00
0.33250001  0.00000000  0.33250001   0.00
0.33300000  0.00000000  0.33300000   0.00
0.33350000  0.00000000  0.33350000   0.00
0.33399999  0.00000000  0.33399999   0.00
0.33450001  0.00000000  0.33450001   0.00
0.33500001  0.00000000  0.33500001   0.00
0.33550000  0.00000000  0.33550000   0.00
0.33600003  0.00000000  0.33600003   0.00
0.33649999  0.00000000  0.33649999   0.00
0.33700001  0.00000000  0.33700001   0.00
0.33750001  0.00000000  0.33750001   0.00
0.33800000  0.00000000  0.33800000   0.00
0.33849999  0.00000000  0.33849999   0.00
0.33900002  0.00000000  0.33900002   0.00
0.33950001  0.00000000  0.33950001   0.00
0.34000000  0.00000000  0.34000000   0.00
0.34050000  0.00000000  0.34050000   0.00
0.34099999  0.00000000  0.34099999   0.00
0.34150001  0.00000000  0.34150001   0.00