CdTe (ICSD, 295K, Rabadanov 2001)                                     
   6.4827 
    0.5 0.5  0.0
    0.5 0.0 -0.5
    0.0 0.5 -0.5
       1   1
Direct
  0.0000000000000000  0.0000000000000000  0.0000000000000000
  0.2500000000000000  0.2500000000000000  0.2500000000000000
