C N H Pb I
   1.0
    12.5768374277686394    0.0019159116494978    0.1381987933539664
     0.0011956322447466   12.4575380825249127   -0.0007464134870236
     0.1394107043392118    0.0000890449825412   12.7474206252920563
C   N   H  Pb   I
   8    8   48    8   24
Direct
  0.1975302636757000  0.2498660473629040  0.2286730287267016
  0.6964580011495959  0.2499505028657044  0.2291576799543922
  0.1964580011495959  0.7499505028657043  0.2291576799543922
  0.6975302636756999  0.7498660473629042  0.2286730287267016
  0.1964580011495960  0.2499505028657044  0.7291576799543922
  0.6975302636757001  0.2498660473629041  0.7286730287267017
  0.1975302636757000  0.7498660473629042  0.7286730287267017
  0.6964580011495958  0.7499505028657043  0.7291576799543922
  0.3094943709563033  0.2499765139264950  0.2637009283426016
  0.7995800668771316  0.2500307673066716  0.2840676646060056
  0.2995800668771316  0.7500307673066715  0.2840676646060056
  0.8094943709563032  0.7499765139264950  0.2637009283426016
  0.2995800668771316  0.2500307673066716  0.7840676646060054
  0.8094943709563031  0.2499765139264950  0.7637009283426016
  0.3094943709563032  0.7499765139264949  0.7637009283426016
  0.7995800668771313  0.7500307673066716  0.7840676646060055
  0.1973850403856715  0.2497790808548050  0.1420615388883166
  0.7127652940878347  0.2498631117932557  0.1437157130051117
  0.2127652940878349  0.7498631117932557  0.1437157130051116
  0.6973850403856714  0.7497790808548049  0.1420615388883167
  0.2127652940878349  0.2498631117932557  0.6437157130051115
  0.6973850403856713  0.2497790808548051  0.6420615388883167
  0.1973850403856715  0.7497790808548049  0.6420615388883167
  0.7127652940878348  0.7498631117932557  0.6437157130051115
  0.1571424668547551  0.3222492000330917  0.2590140020773326
  0.6515331465020920  0.3224551733476629  0.2520166364153020
  0.1515331465020920  0.8224551733476629  0.2520166364153020
  0.6571424668547552  0.8222492000330918  0.2590140020773326
  0.1515331465020920  0.3224551733476629  0.7520166364153020
  0.6571424668547549  0.3222492000330917  0.7590140020773325
  0.1571424668547551  0.8222492000330918  0.7590140020773325
  0.6515331465020919  0.8224551733476629  0.7520166364153021
  0.1572830911020527  0.1774803621031783  0.2591409203909726
  0.6516025761764144  0.1774717848471463  0.2521604930296527
  0.1516025761764145  0.6774717848471463  0.2521604930296527
  0.6572830911020524  0.6774803621031782  0.2591409203909726
  0.1516025761764145  0.1774717848471464  0.7521604930296527
  0.6572830911020524  0.1774803621031783  0.7591409203909726
  0.1572830911020527  0.6774803621031782  0.7591409203909726
  0.6516025761764144  0.6774717848471462  0.7521604930296527
  0.3511294105274304  0.3177942805378331  0.2368549125156000
  0.8451397442259787  0.3179542852766124  0.2646580694508779
  0.3451397442259788  0.8179542852766123  0.2646580694508779
  0.8511294105274302  0.8177942805378331  0.2368549125156000
  0.3451397442259789  0.3179542852766124  0.7646580694508778
  0.8511294105274301  0.3177942805378331  0.7368549125156000
  0.3511294105274303  0.8177942805378330  0.7368549125156000
  0.8451397442259787  0.8179542852766124  0.7646580694508778
  0.3512425473121354  0.1821603781102696  0.2369520919066420
  0.8451680531949431  0.1820493968323958  0.2648297077484852
  0.3451680531949435  0.6820493968323958  0.2648297077484851
  0.8512425473121352  0.6821603781102695  0.2369520919066421
  0.3451680531949434  0.1820493968323957  0.7648297077484852
  0.8512425473121352  0.1821603781102696  0.7369520919066419
  0.3512425473121354  0.6821603781102695  0.7369520919066419
  0.8451680531949434  0.6820493968323958  0.7648297077484852
  0.3165839992135428  0.2500376754153385  0.3457357115774237
  0.7897561467324850  0.2501493680236031  0.3654827777622408
  0.2897561467324851  0.7501493680236032  0.3654827777622407
  0.8165839992135427  0.7500376754153385  0.3457357115774237
  0.2897561467324851  0.2501493680236031  0.8654827777622408
  0.8165839992135429  0.2500376754153385  0.8457357115774238
  0.3165839992135429  0.7500376754153385  0.8457357115774238
  0.7897561467324850  0.7501493680236032  0.8654827777622409
  0.4724392035263891  0.4986651009474407  0.4888079237394079
  0.9724443484313339  0.5013144887824275  0.4888149702901999
  0.4724443484313339  0.0013144887824275  0.4888149702902000
  0.9724392035263888  0.9986651009474407  0.4888079237394079
  0.4724443484313339  0.5013144887824273  0.9888149702902002
  0.9724392035263889  0.4986651009474408  0.9888079237394078
  0.4724392035263890  0.9986651009474407  0.9888079237394078
  0.9724443484313338  0.0013144887824275  0.9888149702902003
  0.4547127459303274  0.5027332407165153  0.2375743090957065
  0.9547746027294741  0.4972488583081125  0.2375711748212830
  0.4547746027294743  0.9972488583081124  0.2375711748212830
  0.9547127459303272  0.0027332407165150  0.2375743090957065
  0.4547746027294743  0.4972488583081125  0.7375711748212830
  0.9547127459303271  0.5027332407165152  0.7375743090957065
  0.4547127459303275  0.0027332407165153  0.7375743090957065
  0.9547746027294742  0.9972488583081124  0.7375711748212830
  0.4699676162133570  0.2499741265646808  0.0109238584833766
  0.9293032629144333  0.2499838945264014  0.0127405769850422
  0.4293032629144334  0.7499838945264012  0.0127405769850422
  0.9699676162133569  0.7499741265646808  0.0109238584833766
  0.4293032629144334  0.2499838945264013  0.5127405769850422
  0.9699676162133570  0.2499741265646808  0.5109238584833765
  0.4699676162133570  0.7499741265646808  0.5109238584833765
  0.9293032629144332  0.7499838945264012  0.5127405769850422
  0.2161663996844850  0.5233205987435119  0.4612640520588742
  0.7161764771960903  0.4766742739740317  0.4612153516283385
  0.2161764771960904  0.9766742739740315  0.4612153516283385
  0.7161663996844849  0.0233205987435117  0.4612640520588742
  0.2161764771960904  0.4766742739740317  0.9612153516283385
  0.7161663996844849  0.5233205987435119  0.9612640520588741
  0.2161663996844850  0.0233205987435119  0.9612640520588742
  0.7161764771960903  0.9766742739740315  0.9612153516283385
