C N H Pb I                              
   1.00000000000000     
    12.5768374277686394    0.0019159116494978    0.1381987933539664
     0.0011956322447466   12.4575380825249127   -0.0007464134870236
     0.1394107043392118    0.0000890449825412   12.7474206252920563
   C    N    H    Pb   I 
     8     8    48     8    24
Direct
  0.1972085849178669  0.2498913840137433  0.2288184240950102
  0.6967796799074293  0.2499251662148652  0.2290122845860836
  0.1967796799074293  0.7499251662148652  0.2290122845860836
  0.6972085849178669  0.7498913840137433  0.2288184240950102
  0.1967796799074293  0.2499251662148652  0.7290122845860836
  0.6972085849178669  0.2498913840137433  0.7288184240950102
  0.1972085849178669  0.7498913840137433  0.7288184240950102
  0.6967796799074293  0.7499251662148652  0.7290122845860836
  0.3065200797325502  0.2499927899405492  0.2698109492216219
  0.8025543581008847  0.2500144912926174  0.2779576437269853
  0.3025543581008847  0.7500144912926174  0.2779576437269853
  0.8065200797325502  0.7499927899405492  0.2698109492216219
  0.3025543581008847  0.2500144912926174  0.7779576437269853
  0.8065200797325502  0.2499927899405492  0.7698109492216219
  0.3065200797325502  0.7499927899405492  0.7698109492216219
  0.8025543581008847  0.7500144912926174  0.7779576437269853
  0.2019991164963173  0.2498042901363391  0.1425577911233518
  0.7081512179771892  0.2498379025117217  0.1432194607700765
  0.2081512179771892  0.7498379025117217  0.1432194607700765
  0.7019991164963173  0.7498042901363391  0.1425577911233518
  0.2081512179771892  0.2498379025117217  0.6432194607700765
  0.7019991164963173  0.2498042901363391  0.6425577911233518
  0.2019991164963173  0.7498042901363391  0.6425577911233518
  0.7081512179771892  0.7498379025117217  0.6432194607700765
  0.1554596707489537  0.3223109920274609  0.2569147923787227
  0.6532159426078934  0.3223933813532938  0.2541158461139119
  0.1532159426078934  0.8223933813532938  0.2541158461139119
  0.6554596707489537  0.8223109920274609  0.2569147923787227
  0.1532159426078934  0.3223933813532938  0.7541158461139119
  0.6554596707489537  0.3223109920274609  0.7569147923787227
  0.1554596707489537  0.8223109920274609  0.7569147923787227
  0.6532159426078934  0.8223933813532938  0.7541158461139119
  0.1555789366243587  0.1774777889263675  0.2570467921825781
  0.6533067306541085  0.1774743580239573  0.2542546212380472
  0.1533067306541085  0.6774743580239573  0.2542546212380472
  0.6555789366243587  0.6774777889263675  0.2570467921825781
  0.1533067306541085  0.1774743580239573  0.7542546212380472
  0.6555789366243587  0.1774777889263675  0.7570467921825781
  0.1555789366243587  0.6774777889263675  0.7570467921825781
  0.6533067306541085  0.6774743580239573  0.7542546212380472
  0.3493325106369980  0.3178422819594644  0.2451958595961798
  0.8469366441164112  0.3179062838549811  0.2563171223702980
  0.3469366441164112  0.8179062838549811  0.2563171223702980
  0.8493325106369980  0.8178422819594644  0.2451958595961798
  0.3469366441164112  0.3179062838549811  0.7563171223702909
  0.8493325106369980  0.3178422819594644  0.7451958595961798
  0.3493325106369980  0.8178422819594644  0.7451958595961798
  0.8469366441164112  0.8179062838549811  0.7563171223702909
  0.3494201990769810  0.1821270837269040  0.2453153766591925
  0.8469904014300980  0.1820826912157614  0.2564664229959348
  0.3469904014300980  0.6820826912157614  0.2564664229959348
  0.8494201990769810  0.6821270837269040  0.2453153766591925
  0.3469904014300980  0.1820826912157614  0.7564664229959348
  0.8494201990769810  0.1821270837269040  0.7453153766591925
  0.3494201990769810  0.6821270837269040  0.7453153766591925
  0.8469904014300980  0.6820826912157543  0.7564664229959348
  0.3085356434692272  0.2500711831978180  0.3516598314328689
  0.7978045024768008  0.2501158602411238  0.3595586579067955
  0.2978045024768008  0.7501158602411238  0.3595586579067955
  0.8085356434692272  0.7500711831978180  0.3516598314328689
  0.2978045024768008  0.2501158602411238  0.8595586579067955
  0.8085356434692272  0.2500711831978180  0.8516598314328689
  0.3085356434692272  0.7500711831978180  0.8516598314328689
  0.7978045024768008  0.7501158602411238  0.8595586579067955
  0.4724407469978757  0.4994599172979335  0.4888100377046456
  0.9724428049598473  0.5005196724319347  0.4888128563249623
  0.4724428049598473  0.0005196724319347  0.4888128563249623
  0.9724407469978757  0.9994599172979335  0.4888100377046456
  0.4724428049598473  0.5005196724319347  0.9888128563249623
  0.9724407469978757  0.4994599172979335  0.9888100377046456
  0.4724407469978757  0.9994599172979335  0.9888100377046456
  0.9724428049598473  0.0005196724319347  0.9888128563249623
  0.4547313029700746  0.5010879259939927  0.2375733688133792
  0.9547560456897273  0.4988941730306351  0.2375721151036103
  0.4547560456897273  0.9988941730306351  0.2375721151036103
  0.9547313029700746  0.0010879259939927  0.2375733688133792
  0.4547560456897273  0.4988941730306351  0.7375721151036103
  0.9547313029700746  0.5010879259939927  0.7375733688133792
  0.4547313029700746  0.0010879259939927  0.7375733688133792
  0.9547560456897273  0.9988941730306351  0.7375721151036103
  0.4577683102236776  0.2499770569531989  0.0114688740338735
  0.9415025689041130  0.2499809641378832  0.0121955614345453
  0.4415025689041130  0.7499809641378832  0.0121955614345453
  0.9577683102236776  0.7499770569531989  0.0114688740338735
  0.4415025689041130  0.2499809641378832  0.5121955614345453
  0.9577683102236776  0.2499770569531989  0.5114688740338735
  0.4577683102236776  0.7499770569531989  0.5114688740338735
  0.9415025689041130  0.7499809641378832  0.5121955614345453
  0.2161694229379663  0.5093267013126663  0.4612494419297164
  0.7161734539426092  0.4906681714048773  0.4612299617574962
  0.2161734539426092  0.9906681714048773  0.4612299617574962
  0.7161694229379663  0.0093267013126663  0.4612494419297164
  0.2161734539426092  0.4906681714048773  0.9612299617574962
  0.7161694229379663  0.5093267013126663  0.9612494419297164
  0.2161694229379663  0.0093267013126663  0.9612494419297164
  0.7161734539426092  0.9906681714048773  0.9612299617574962
 
  0.00000000E+00  0.00000000E+00  0.00000000E+00
  0.00000000E+00  0.00000000E+00  0.00000000E+00
  0.00000000E+00  0.00000000E+00  0.00000000E+00
  0.00000000E+00  0.00000000E+00  0.00000000E+00
  0.00000000E+00  0.00000000E+00  0.00000000E+00
  0.00000000E+00  0.00000000E+00  0.00000000E+00
  0.00000000E+00  0.00000000E+00  0.00000000E+00
  0.00000000E+00  0.00000000E+00  0.00000000E+00
  0.00000000E+00  0.00000000E+00  0.00000000E+00
  0.00000000E+00  0.00000000E+00  0.00000000E+00
  0.00000000E+00  0.00000000E+00  0.00000000E+00
  0.00000000E+00  0.00000000E+00  0.00000000E+00
  0.00000000E+00  0.00000000E+00  0.00000000E+00
  0.00000000E+00  0.00000000E+00  0.00000000E+00
  0.00000000E+00  0.00000000E+00  0.00000000E+00
  0.00000000E+00  0.00000000E+00  0.00000000E+00
  0.00000000E+00  0.00000000E+00  0.00000000E+00
  0.00000000E+00  0.00000000E+00  0.00000000E+00
  0.00000000E+00  0.00000000E+00  0.00000000E+00
  0.00000000E+00  0.00000000E+00  0.00000000E+00
  0.00000000E+00  0.00000000E+00  0.00000000E+00
  0.00000000E+00  0.00000000E+00  0.00000000E+00
  0.00000000E+00  0.00000000E+00  0.00000000E+00
  0.00000000E+00  0.00000000E+00  0.00000000E+00
  0.00000000E+00  0.00000000E+00  0.00000000E+00
  0.00000000E+00  0.00000000E+00  0.00000000E+00
  0.00000000E+00  0.00000000E+00  0.00000000E+00
  0.00000000E+00  0.00000000E+00  0.00000000E+00
  0.00000000E+00  0.00000000E+00  0.00000000E+00
  0.00000000E+00  0.00000000E+00  0.00000000E+00
  0.00000000E+00  0.00000000E+00  0.00000000E+00
  0.00000000E+00  0.00000000E+00  0.00000000E+00
  0.00000000E+00  0.00000000E+00  0.00000000E+00
  0.00000000E+00  0.00000000E+00  0.00000000E+00
  0.00000000E+00  0.00000000E+00  0.00000000E+00
  0.00000000E+00  0.00000000E+00  0.00000000E+00
  0.00000000E+00  0.00000000E+00  0.00000000E+00
  0.00000000E+00  0.00000000E+00  0.00000000E+00
  0.00000000E+00  0.00000000E+00  0.00000000E+00
  0.00000000E+00  0.00000000E+00  0.00000000E+00
  0.00000000E+00  0.00000000E+00  0.00000000E+00
  0.00000000E+00  0.00000000E+00  0.00000000E+00
  0.00000000E+00  0.00000000E+00  0.00000000E+00
  0.00000000E+00  0.00000000E+00  0.00000000E+00
  0.00000000E+00  0.00000000E+00  0.00000000E+00
  0.00000000E+00  0.00000000E+00  0.00000000E+00
  0.00000000E+00  0.00000000E+00  0.00000000E+00
  0.00000000E+00  0.00000000E+00  0.00000000E+00
  0.00000000E+00  0.00000000E+00  0.00000000E+00
  0.00000000E+00  0.00000000E+00  0.00000000E+00
  0.00000000E+00  0.00000000E+00  0.00000000E+00
  0.00000000E+00  0.00000000E+00  0.00000000E+00
  0.00000000E+00  0.00000000E+00  0.00000000E+00
  0.00000000E+00  0.00000000E+00  0.00000000E+00
  0.00000000E+00  0.00000000E+00  0.00000000E+00
  0.00000000E+00  0.00000000E+00  0.00000000E+00
  0.00000000E+00  0.00000000E+00  0.00000000E+00
  0.00000000E+00  0.00000000E+00  0.00000000E+00
  0.00000000E+00  0.00000000E+00  0.00000000E+00
  0.00000000E+00  0.00000000E+00  0.00000000E+00
  0.00000000E+00  0.00000000E+00  0.00000000E+00
  0.00000000E+00  0.00000000E+00  0.00000000E+00
  0.00000000E+00  0.00000000E+00  0.00000000E+00
  0.00000000E+00  0.00000000E+00  0.00000000E+00
  0.00000000E+00  0.00000000E+00  0.00000000E+00
  0.00000000E+00  0.00000000E+00  0.00000000E+00
  0.00000000E+00  0.00000000E+00  0.00000000E+00
  0.00000000E+00  0.00000000E+00  0.00000000E+00
  0.00000000E+00  0.00000000E+00  0.00000000E+00
  0.00000000E+00  0.00000000E+00  0.00000000E+00
  0.00000000E+00  0.00000000E+00  0.00000000E+00
  0.00000000E+00  0.00000000E+00  0.00000000E+00
  0.00000000E+00  0.00000000E+00  0.00000000E+00
  0.00000000E+00  0.00000000E+00  0.00000000E+00
  0.00000000E+00  0.00000000E+00  0.00000000E+00
  0.00000000E+00  0.00000000E+00  0.00000000E+00
  0.00000000E+00  0.00000000E+00  0.00000000E+00
  0.00000000E+00  0.00000000E+00  0.00000000E+00
  0.00000000E+00  0.00000000E+00  0.00000000E+00
  0.00000000E+00  0.00000000E+00  0.00000000E+00
  0.00000000E+00  0.00000000E+00  0.00000000E+00
  0.00000000E+00  0.00000000E+00  0.00000000E+00
  0.00000000E+00  0.00000000E+00  0.00000000E+00
  0.00000000E+00  0.00000000E+00  0.00000000E+00
  0.00000000E+00  0.00000000E+00  0.00000000E+00
  0.00000000E+00  0.00000000E+00  0.00000000E+00
  0.00000000E+00  0.00000000E+00  0.00000000E+00
  0.00000000E+00  0.00000000E+00  0.00000000E+00
  0.00000000E+00  0.00000000E+00  0.00000000E+00
  0.00000000E+00  0.00000000E+00  0.00000000E+00
  0.00000000E+00  0.00000000E+00  0.00000000E+00
  0.00000000E+00  0.00000000E+00  0.00000000E+00
  0.00000000E+00  0.00000000E+00  0.00000000E+00
  0.00000000E+00  0.00000000E+00  0.00000000E+00
  0.00000000E+00  0.00000000E+00  0.00000000E+00
  0.00000000E+00  0.00000000E+00  0.00000000E+00
