ADDGRID = .TRUE.
EDIFF = 1.0e-06
ENCUT = 700
ISIF = 2
ISMEAR = 0
LCHARG = .FALSE.
LREAL = .FALSE.
LWAVE = .FALSE.
NSW = 0
PREC = Accurate
SIGMA = 0.001
SYSTEM = MAPbI3-Cubic

ICORELEVEL = 1
KPAR = 9
NPAR = 4

LHFCALC = .TRUE.
PRECFOCK = Fast
ALGO = All
HFSCREEN = 0.207

GGA_COMPAT = .FALSE.
ISYM = 0
LSORBIT = .TRUE.
SAXIS = 0 0 1

