C N H Pb I                              
   1.00000000000000     
    12.5768374277686394    0.0019159116494978    0.1381987933539664
     0.0011956322447466   12.4575380825249127   -0.0007464134870236
     0.1394107043392118    0.0000890449825412   12.7474206252920563
   C    N    H    Pb   I 
     8     8    48     8    24
Direct
  0.1973158111704763  0.2498829384634647  0.2287699589722365
  0.6966724536548199  0.2499336117651438  0.2290607497088573
  0.1966724536548199  0.7499336117651438  0.2290607497088573
  0.6973158111704763  0.7498829384634647  0.2287699589722365
  0.1966724536548199  0.2499336117651438  0.7290607497088573
  0.6973158111704763  0.2498829384634647  0.7287699589722365
  0.1973158111704763  0.7498829384634647  0.7287699589722365
  0.6966724536548199  0.7499336117651438  0.7290607497088573
  0.3075115101404720  0.2499873646025321  0.2677742755952792
  0.8015629276929630  0.2500199166306345  0.2799943173533279
  0.3015629276929630  0.7500199166306345  0.2799943173533279
  0.8075115101404720  0.7499873646025321  0.2677742755952792
  0.3015629276929630  0.2500199166306345  0.7799943173533279
  0.8075115101404720  0.2499873646025321  0.7677742755952792
  0.3075115101404720  0.7499873646025321  0.7677742755952792
  0.8015629276929630  0.7500199166306345  0.7799943173533279
  0.2004610911261011  0.2497958870424952  0.1423923737116723
  0.7096892433474054  0.2498463056055655  0.1433848781817559
  0.2096892433474054  0.7498463056055655  0.1433848781817559
  0.7004610911261011  0.7497958870424952  0.1423923737116723
  0.2096892433474054  0.2498463056055655  0.6433848781817559
  0.7004610911261011  0.2497958870424952  0.6423923737116723
  0.2004610911261011  0.7497958870424952  0.6423923737116723
  0.7096892433474054  0.7498463056055655  0.6433848781817559
  0.1560206027842241  0.3222903946960045  0.2576145289449272
  0.6526550105726230  0.3224139786847502  0.2534161095477074
  0.1526550105726230  0.8224139786847502  0.2534161095477074
  0.6560206027842241  0.8222903946960045  0.2576145289449272
  0.1526550105726230  0.3224139786847502  0.7534161095477074
  0.6560206027842241  0.3222903946960045  0.7576145289449272
  0.1560206027842241  0.8222903946960045  0.7576145289449272
  0.6526550105726230  0.8224139786847502  0.7534161095477074
  0.1561469881169231  0.1774786466519700  0.2577448349187108
  0.6527386791615442  0.1774735002983547  0.2535565785019145
  0.1527386791615442  0.6774735002983547  0.2535565785019145
  0.6561469881169231  0.6774786466519700  0.2577448349187108
  0.1527386791615442  0.1774735002983547  0.7535565785019145
  0.6561469881169231  0.1774786466519700  0.7577448349187108
  0.1561469881169231  0.6774786466519700  0.7577448349187108
  0.6527386791615442  0.6774735002983547  0.7535565785019145
  0.3499314772671411  0.3178262814855870  0.2424155439026521
  0.8463376774862681  0.3179222843288585  0.2590974380638258
  0.3463376774862681  0.8179222843288585  0.2590974380638258
  0.8499314772671411  0.8178262814855870  0.2424155439026521
  0.3463376774862681  0.3179222843288585  0.7590974380638258
  0.8499314772671411  0.3178262814855870  0.7424155439026521
  0.3499314772671411  0.8178262814855870  0.7424155439026521
  0.8463376774862681  0.8179222843288585  0.7590974380638187
  0.3500276484886982  0.1821381818546968  0.2425276150750122
  0.8463829520183808  0.1820715930879686  0.2592541845801151
  0.3463829520183808  0.6820715930879686  0.2592541845801151
  0.8500276484886982  0.6821381818546968  0.2425276150750122
  0.3463829520183808  0.1820715930879686  0.7592541845801151
  0.8500276484886982  0.1821381818546968  0.7425276150750122
  0.3500276484886982  0.6821381818546968  0.7425276150750122
  0.8463829520183808  0.6820715930879686  0.7592541845801151
  0.3112184287173321  0.2500600139369880  0.3496851248143855
  0.7951217172286960  0.2501270295019538  0.3615333645252790
  0.2951217172286960  0.7501270295019538  0.3615333645252790
  0.8112184287173321  0.7500600139369880  0.3496851248143855
  0.2951217172286960  0.2501270295019538  0.8615333645252790
  0.8112184287173321  0.2500600139369880  0.8496851248143855
  0.3112184287173321  0.7500600139369951  0.8496851248143855
  0.7951217172286960  0.7501270295019538  0.8615333645252790
  0.4724402325073811  0.4991949785144385  0.4888093330495664
  0.9724433194503419  0.5007846112154297  0.4888135609800415
  0.4724433194503419  0.0007846112154297  0.4888135609800415
  0.9724402325073811  0.9991949785144385  0.4888093330495664
  0.4724433194503419  0.5007846112154297  0.9888135609800415
  0.9724402325073811  0.4991949785144385  0.9888093330495664
  0.4724402325073811  0.9991949785144385  0.9888093330495664
  0.9724433194503419  0.0007846112154297  0.9888135609800415
  0.4547251172901596  0.5016363642348338  0.2375736822408214
  0.9547622313696422  0.4983457347897939  0.2375718016761681
  0.4547622313696422  0.9983457347897939  0.2375718016761681
  0.9547251172901596  0.0016363642348338  0.2375736822408214
  0.4547622313696422  0.4983457347897939  0.7375718016761681
  0.9547251172901596  0.5016363642348338  0.7375736822408214
  0.4547251172901596  0.0016363642348338  0.7375736822408214
  0.9547622313696422  0.9983457347897939  0.7375718016761681
  0.4618347455535741  0.2499760801570261  0.0112872021837092
  0.9374361335742165  0.2499819409340560  0.0123772332847096
  0.4374361335742165  0.7499819409340560  0.0123772332847096
  0.9618347455535741  0.7499760801570261  0.0112872021837092
  0.4374361335742165  0.2499819409340560  0.5123772332847096
  0.9618347455535741  0.2499760801570261  0.5112872021837092
  0.4618347455535741  0.7499760801570261  0.5112872021837092
  0.9374361335742165  0.7499819409340560  0.5123772332847096
  0.2161684151868073  0.5139913337896189  0.4612543119727661
  0.7161744616937682  0.4860035389279247  0.4612250917144465
  0.2161744616937682  0.9860035389279247  0.4612250917144465
  0.7161684151868073  0.0139913337896189  0.4612543119727661
  0.2161744616937682  0.4860035389279247  0.9612250917144465
  0.7161684151868073  0.5139913337896189  0.9612543119727661
  0.2161684151868073  0.0139913337896189  0.9612543119727661
  0.7161744616937682  0.9860035389279247  0.9612250917144465
 
  0.00000000E+00  0.00000000E+00  0.00000000E+00
  0.00000000E+00  0.00000000E+00  0.00000000E+00
  0.00000000E+00  0.00000000E+00  0.00000000E+00
  0.00000000E+00  0.00000000E+00  0.00000000E+00
  0.00000000E+00  0.00000000E+00  0.00000000E+00
  0.00000000E+00  0.00000000E+00  0.00000000E+00
  0.00000000E+00  0.00000000E+00  0.00000000E+00
  0.00000000E+00  0.00000000E+00  0.00000000E+00
  0.00000000E+00  0.00000000E+00  0.00000000E+00
  0.00000000E+00  0.00000000E+00  0.00000000E+00
  0.00000000E+00  0.00000000E+00  0.00000000E+00
  0.00000000E+00  0.00000000E+00  0.00000000E+00
  0.00000000E+00  0.00000000E+00  0.00000000E+00
  0.00000000E+00  0.00000000E+00  0.00000000E+00
  0.00000000E+00  0.00000000E+00  0.00000000E+00
  0.00000000E+00  0.00000000E+00  0.00000000E+00
  0.00000000E+00  0.00000000E+00  0.00000000E+00
  0.00000000E+00  0.00000000E+00  0.00000000E+00
  0.00000000E+00  0.00000000E+00  0.00000000E+00
  0.00000000E+00  0.00000000E+00  0.00000000E+00
  0.00000000E+00  0.00000000E+00  0.00000000E+00
  0.00000000E+00  0.00000000E+00  0.00000000E+00
  0.00000000E+00  0.00000000E+00  0.00000000E+00
  0.00000000E+00  0.00000000E+00  0.00000000E+00
  0.00000000E+00  0.00000000E+00  0.00000000E+00
  0.00000000E+00  0.00000000E+00  0.00000000E+00
  0.00000000E+00  0.00000000E+00  0.00000000E+00
  0.00000000E+00  0.00000000E+00  0.00000000E+00
  0.00000000E+00  0.00000000E+00  0.00000000E+00
  0.00000000E+00  0.00000000E+00  0.00000000E+00
  0.00000000E+00  0.00000000E+00  0.00000000E+00
  0.00000000E+00  0.00000000E+00  0.00000000E+00
  0.00000000E+00  0.00000000E+00  0.00000000E+00
  0.00000000E+00  0.00000000E+00  0.00000000E+00
  0.00000000E+00  0.00000000E+00  0.00000000E+00
  0.00000000E+00  0.00000000E+00  0.00000000E+00
  0.00000000E+00  0.00000000E+00  0.00000000E+00
  0.00000000E+00  0.00000000E+00  0.00000000E+00
  0.00000000E+00  0.00000000E+00  0.00000000E+00
  0.00000000E+00  0.00000000E+00  0.00000000E+00
  0.00000000E+00  0.00000000E+00  0.00000000E+00
  0.00000000E+00  0.00000000E+00  0.00000000E+00
  0.00000000E+00  0.00000000E+00  0.00000000E+00
  0.00000000E+00  0.00000000E+00  0.00000000E+00
  0.00000000E+00  0.00000000E+00  0.00000000E+00
  0.00000000E+00  0.00000000E+00  0.00000000E+00
  0.00000000E+00  0.00000000E+00  0.00000000E+00
  0.00000000E+00  0.00000000E+00  0.00000000E+00
  0.00000000E+00  0.00000000E+00  0.00000000E+00
  0.00000000E+00  0.00000000E+00  0.00000000E+00
  0.00000000E+00  0.00000000E+00  0.00000000E+00
  0.00000000E+00  0.00000000E+00  0.00000000E+00
  0.00000000E+00  0.00000000E+00  0.00000000E+00
  0.00000000E+00  0.00000000E+00  0.00000000E+00
  0.00000000E+00  0.00000000E+00  0.00000000E+00
  0.00000000E+00  0.00000000E+00  0.00000000E+00
  0.00000000E+00  0.00000000E+00  0.00000000E+00
  0.00000000E+00  0.00000000E+00  0.00000000E+00
  0.00000000E+00  0.00000000E+00  0.00000000E+00
  0.00000000E+00  0.00000000E+00  0.00000000E+00
  0.00000000E+00  0.00000000E+00  0.00000000E+00
  0.00000000E+00  0.00000000E+00  0.00000000E+00
  0.00000000E+00  0.00000000E+00  0.00000000E+00
  0.00000000E+00  0.00000000E+00  0.00000000E+00
  0.00000000E+00  0.00000000E+00  0.00000000E+00
  0.00000000E+00  0.00000000E+00  0.00000000E+00
  0.00000000E+00  0.00000000E+00  0.00000000E+00
  0.00000000E+00  0.00000000E+00  0.00000000E+00
  0.00000000E+00  0.00000000E+00  0.00000000E+00
  0.00000000E+00  0.00000000E+00  0.00000000E+00
  0.00000000E+00  0.00000000E+00  0.00000000E+00
  0.00000000E+00  0.00000000E+00  0.00000000E+00
  0.00000000E+00  0.00000000E+00  0.00000000E+00
  0.00000000E+00  0.00000000E+00  0.00000000E+00
  0.00000000E+00  0.00000000E+00  0.00000000E+00
  0.00000000E+00  0.00000000E+00  0.00000000E+00
  0.00000000E+00  0.00000000E+00  0.00000000E+00
  0.00000000E+00  0.00000000E+00  0.00000000E+00
  0.00000000E+00  0.00000000E+00  0.00000000E+00
  0.00000000E+00  0.00000000E+00  0.00000000E+00
  0.00000000E+00  0.00000000E+00  0.00000000E+00
  0.00000000E+00  0.00000000E+00  0.00000000E+00
  0.00000000E+00  0.00000000E+00  0.00000000E+00
  0.00000000E+00  0.00000000E+00  0.00000000E+00
  0.00000000E+00  0.00000000E+00  0.00000000E+00
  0.00000000E+00  0.00000000E+00  0.00000000E+00
  0.00000000E+00  0.00000000E+00  0.00000000E+00
  0.00000000E+00  0.00000000E+00  0.00000000E+00
  0.00000000E+00  0.00000000E+00  0.00000000E+00
  0.00000000E+00  0.00000000E+00  0.00000000E+00
  0.00000000E+00  0.00000000E+00  0.00000000E+00
  0.00000000E+00  0.00000000E+00  0.00000000E+00
  0.00000000E+00  0.00000000E+00  0.00000000E+00
  0.00000000E+00  0.00000000E+00  0.00000000E+00
  0.00000000E+00  0.00000000E+00  0.00000000E+00
  0.00000000E+00  0.00000000E+00  0.00000000E+00
