C N H Pb I                              
   1.00000000000000     
    12.5768374277686394    0.0019159116494978    0.1381987933539664
     0.0011956322447466   12.4575380825249127   -0.0007464134870236
     0.1394107043392118    0.0000890449825412   12.7474206252920563
   C    N    H    Pb   I 
     8     8    48     8    24
Direct
  0.1982291733319101  0.2498109985618839  0.2283571290149311
  0.6957590914933860  0.2500055516667246  0.2294735796661627
  0.1957590914933860  0.7500055516667246  0.2294735796661627
  0.6982291733319101  0.7498109985618839  0.2283571290149311
  0.1957590914933860  0.2500055516667246  0.7294735796661627
  0.6982291733319101  0.2498109985618839  0.7283571290149311
  0.1982291733319101  0.7498109985618839  0.7283571290149311
  0.6957590914933860  0.7500055516667246  0.7294735796661627
  0.3159565970314020  0.2499411511208578  0.2504257198060174
  0.7931178408020330  0.2500661301123088  0.2973428731425898
  0.2931178408020330  0.7500661301123088  0.2973428731425898
  0.8159565970314020  0.7499411511208578  0.2504257198060174
  0.2931178408020330  0.2500661301123088  0.7973428731425898
  0.8159565970314020  0.2499411511208578  0.7504257198060174
  0.3159565970314020  0.7499411511208578  0.7504257198060174
  0.7931178408020330  0.7500661301123088  0.7973428731425898
  0.1873600627652579  0.2497243087883589  0.1409833344046660
  0.7227902717082486  0.2499178838597018  0.1447939174887622
  0.2227902717082486  0.7499178838597018  0.1447939174887622
  0.6873600627652579  0.7497243087883589  0.1409833344046660
  0.2227902717082486  0.2499178838597018  0.6447939174887622
  0.6873600627652579  0.2497243087883589  0.6409833344046660
  0.1873600627652579  0.7497243087883589  0.6409833344046660
  0.7227902717082486  0.7499178838597018  0.6447939174887622
  0.1607986686372627  0.3221149449090177  0.2635749433674945
  0.6478769447195845  0.3225894284717370  0.2474556951251401
  0.1478769447195845  0.8225894284717370  0.2474556951251401
  0.6607986686372627  0.8221149449090177  0.2635749433674945
  0.1478769447195845  0.3225894284717370  0.7474556951251401
  0.6607986686372627  0.3221149449090177  0.7635749433674945
  0.1607986686372627  0.8221149449090177  0.7635749433674945
  0.6478769447195845  0.8225894284717370  0.7474556951251401
  0.1609856981009159  0.1774859528301818  0.2636908211554996
  0.6478999691775513  0.1774661941201430  0.2476105922651257
  0.1478999691775513  0.6774661941201430  0.2476105922651257
  0.6609856981009159  0.6774859528301818  0.2636908211554996
  0.1478999691775513  0.1774661941201430  0.7476105922651257
  0.6609856981009159  0.1774859528301818  0.7636908211554996
  0.1609856981009159  0.6774859528301818  0.7636908211554996
  0.6478999691775513  0.6774661941201430  0.7476105922651257
  0.3550335249710983  0.3176899881147861  0.2187325829720947
  0.8412356297823109  0.3180585776996594  0.2827803989943831
  0.3412356297823109  0.8180585776996594  0.2827803989943831
  0.8550335249710983  0.8176899881147861  0.2187325829720947
  0.3412356297823109  0.3180585776996594  0.7827803989943831
  0.8550335249710983  0.3176899881147861  0.7187325829720947
  0.3550335249710983  0.8176899881147861  0.7187325829720947
  0.8412356297823109  0.8180585776996594  0.7827803989943831
  0.3552019532334825  0.1822327166326545  0.2187812294269236
  0.8412086472735965  0.1819770583100109  0.2830005702282037
  0.3412086472735965  0.6819770583100109  0.2830005702282037
  0.8552019532334825  0.6822327166326545  0.2187812294269236
  0.3412086472735965  0.1819770583100109  0.7830005702282037
  0.8552019532334825  0.1822327166326545  0.7187812294269236
  0.3552019532334825  0.6822327166326545  0.7187812294269236
  0.8412086472735965  0.6819770583100109  0.7830005702282037
  0.3340706171806218  0.2499648732418436  0.3328644091655519
  0.7722695287654062  0.2502221701970981  0.3783540801741125
  0.2722695287654062  0.7502221701970981  0.3783540801741125
  0.8340706171806218  0.7499648732418436  0.3328644091655519
  0.2722695287654062  0.2502221701970981  0.8783540801741125
  0.8340706171806218  0.2499648732418436  0.8328644091655519
  0.3340706171806218  0.7499648732418436  0.8328644091655519
  0.7722695287654062  0.7502221701970981  0.8783540801741125
  0.4724358500344437  0.4969382078631028  0.4888033307388397
  0.9724477019232793  0.5030413818667654  0.4888195632907681
  0.4724477019232793  0.0030413818667654  0.4888195632907681
  0.9724358500344437  0.9969382078631028  0.4888033307388397
  0.4724477019232793  0.5030413818667654  0.9888195632907681
  0.9724358500344437  0.4969382078631028  0.9888033307388397
  0.4724358500344437  0.9969382078631028  0.9888033307388397
  0.9724477019232793  0.0030413818667654  0.9888195632907681
  0.4546724271528007  0.5063080069050727  0.2375763520419127
  0.9548149215070012  0.4936740921195550  0.2375691318750768
  0.4548149215070012  0.9936740921195550  0.2375691318750768
  0.9546724271528007  0.0063080069050727  0.2375763520419127
  0.4548149215070012  0.4936740921195550  0.7375691318750768
  0.9546724271528007  0.5063080069050727  0.7375763520419127
  0.4546724271528007  0.0063080069050727  0.7375763520419127
  0.9548149215070012  0.9936740921195550  0.7375691318750768
  0.4964729807973995  0.2499677597257772  0.0097397062141980
  0.9027978983303839  0.2499902613653049  0.0139247292542208
  0.4027978983303839  0.7499902613653049  0.0139247292542208
  0.9964729807973995  0.7499677597257772  0.0097397062141980
  0.4027978983303839  0.2499902613653049  0.5139247292542208
  0.9964729807973995  0.2499677597257772  0.5097397062141980
  0.4964729807973995  0.7499677597257772  0.5097397062141980
  0.9027978983303839  0.7499902613653049  0.5139247292542208
  0.2161598310783859  0.5537250622162659  0.4612957954056256
  0.7161830458021896  0.4462698105012777  0.4611836082815870
  0.2161830458021896  0.9462698105012777  0.4611836082815870
  0.7161598310783859  0.0537250622162659  0.4612957954056256
  0.2161830458021896  0.4462698105012777  0.9611836082815870
  0.7161598310783859  0.5537250622162659  0.9612957954056256
  0.2161598310783859  0.0537250622162659  0.9612957954056256
  0.7161830458021896  0.9462698105012777  0.9611836082815870
 
  0.00000000E+00  0.00000000E+00  0.00000000E+00
  0.00000000E+00  0.00000000E+00  0.00000000E+00
  0.00000000E+00  0.00000000E+00  0.00000000E+00
  0.00000000E+00  0.00000000E+00  0.00000000E+00
  0.00000000E+00  0.00000000E+00  0.00000000E+00
  0.00000000E+00  0.00000000E+00  0.00000000E+00
  0.00000000E+00  0.00000000E+00  0.00000000E+00
  0.00000000E+00  0.00000000E+00  0.00000000E+00
  0.00000000E+00  0.00000000E+00  0.00000000E+00
  0.00000000E+00  0.00000000E+00  0.00000000E+00
  0.00000000E+00  0.00000000E+00  0.00000000E+00
  0.00000000E+00  0.00000000E+00  0.00000000E+00
  0.00000000E+00  0.00000000E+00  0.00000000E+00
  0.00000000E+00  0.00000000E+00  0.00000000E+00
  0.00000000E+00  0.00000000E+00  0.00000000E+00
  0.00000000E+00  0.00000000E+00  0.00000000E+00
  0.00000000E+00  0.00000000E+00  0.00000000E+00
  0.00000000E+00  0.00000000E+00  0.00000000E+00
  0.00000000E+00  0.00000000E+00  0.00000000E+00
  0.00000000E+00  0.00000000E+00  0.00000000E+00
  0.00000000E+00  0.00000000E+00  0.00000000E+00
  0.00000000E+00  0.00000000E+00  0.00000000E+00
  0.00000000E+00  0.00000000E+00  0.00000000E+00
  0.00000000E+00  0.00000000E+00  0.00000000E+00
  0.00000000E+00  0.00000000E+00  0.00000000E+00
  0.00000000E+00  0.00000000E+00  0.00000000E+00
  0.00000000E+00  0.00000000E+00  0.00000000E+00
  0.00000000E+00  0.00000000E+00  0.00000000E+00
  0.00000000E+00  0.00000000E+00  0.00000000E+00
  0.00000000E+00  0.00000000E+00  0.00000000E+00
  0.00000000E+00  0.00000000E+00  0.00000000E+00
  0.00000000E+00  0.00000000E+00  0.00000000E+00
  0.00000000E+00  0.00000000E+00  0.00000000E+00
  0.00000000E+00  0.00000000E+00  0.00000000E+00
  0.00000000E+00  0.00000000E+00  0.00000000E+00
  0.00000000E+00  0.00000000E+00  0.00000000E+00
  0.00000000E+00  0.00000000E+00  0.00000000E+00
  0.00000000E+00  0.00000000E+00  0.00000000E+00
  0.00000000E+00  0.00000000E+00  0.00000000E+00
  0.00000000E+00  0.00000000E+00  0.00000000E+00
  0.00000000E+00  0.00000000E+00  0.00000000E+00
  0.00000000E+00  0.00000000E+00  0.00000000E+00
  0.00000000E+00  0.00000000E+00  0.00000000E+00
  0.00000000E+00  0.00000000E+00  0.00000000E+00
  0.00000000E+00  0.00000000E+00  0.00000000E+00
  0.00000000E+00  0.00000000E+00  0.00000000E+00
  0.00000000E+00  0.00000000E+00  0.00000000E+00
  0.00000000E+00  0.00000000E+00  0.00000000E+00
  0.00000000E+00  0.00000000E+00  0.00000000E+00
  0.00000000E+00  0.00000000E+00  0.00000000E+00
  0.00000000E+00  0.00000000E+00  0.00000000E+00
  0.00000000E+00  0.00000000E+00  0.00000000E+00
  0.00000000E+00  0.00000000E+00  0.00000000E+00
  0.00000000E+00  0.00000000E+00  0.00000000E+00
  0.00000000E+00  0.00000000E+00  0.00000000E+00
  0.00000000E+00  0.00000000E+00  0.00000000E+00
  0.00000000E+00  0.00000000E+00  0.00000000E+00
  0.00000000E+00  0.00000000E+00  0.00000000E+00
  0.00000000E+00  0.00000000E+00  0.00000000E+00
  0.00000000E+00  0.00000000E+00  0.00000000E+00
  0.00000000E+00  0.00000000E+00  0.00000000E+00
  0.00000000E+00  0.00000000E+00  0.00000000E+00
  0.00000000E+00  0.00000000E+00  0.00000000E+00
  0.00000000E+00  0.00000000E+00  0.00000000E+00
  0.00000000E+00  0.00000000E+00  0.00000000E+00
  0.00000000E+00  0.00000000E+00  0.00000000E+00
  0.00000000E+00  0.00000000E+00  0.00000000E+00
  0.00000000E+00  0.00000000E+00  0.00000000E+00
  0.00000000E+00  0.00000000E+00  0.00000000E+00
  0.00000000E+00  0.00000000E+00  0.00000000E+00
  0.00000000E+00  0.00000000E+00  0.00000000E+00
  0.00000000E+00  0.00000000E+00  0.00000000E+00
  0.00000000E+00  0.00000000E+00  0.00000000E+00
  0.00000000E+00  0.00000000E+00  0.00000000E+00
  0.00000000E+00  0.00000000E+00  0.00000000E+00
  0.00000000E+00  0.00000000E+00  0.00000000E+00
  0.00000000E+00  0.00000000E+00  0.00000000E+00
  0.00000000E+00  0.00000000E+00  0.00000000E+00
  0.00000000E+00  0.00000000E+00  0.00000000E+00
  0.00000000E+00  0.00000000E+00  0.00000000E+00
  0.00000000E+00  0.00000000E+00  0.00000000E+00
  0.00000000E+00  0.00000000E+00  0.00000000E+00
  0.00000000E+00  0.00000000E+00  0.00000000E+00
  0.00000000E+00  0.00000000E+00  0.00000000E+00
  0.00000000E+00  0.00000000E+00  0.00000000E+00
  0.00000000E+00  0.00000000E+00  0.00000000E+00
  0.00000000E+00  0.00000000E+00  0.00000000E+00
  0.00000000E+00  0.00000000E+00  0.00000000E+00
  0.00000000E+00  0.00000000E+00  0.00000000E+00
  0.00000000E+00  0.00000000E+00  0.00000000E+00
  0.00000000E+00  0.00000000E+00  0.00000000E+00
  0.00000000E+00  0.00000000E+00  0.00000000E+00
  0.00000000E+00  0.00000000E+00  0.00000000E+00
  0.00000000E+00  0.00000000E+00  0.00000000E+00
  0.00000000E+00  0.00000000E+00  0.00000000E+00
  0.00000000E+00  0.00000000E+00  0.00000000E+00
