C N H Pb I
   1.0
    12.5768374277686394    0.0019159116494978    0.1381987933539664
     0.0011956322447466   12.4575380825249127   -0.0007464134870236
     0.1394107043392118    0.0000890449825412   12.7474206252920563
C   N   H  Pb   I
   8    8   48    8   24
Direct
  0.2065323472331338  0.2499480478518517  0.2140598145093723
  0.6874559175921621  0.2498685023767567  0.2437708941717216
  0.1874559175921622  0.7498685023767566  0.2437708941717216
  0.7065323472331337  0.7499480478518519  0.2140598145093723
  0.2065323472331338  0.2499480478518517  0.7140598145093722
  0.6874559175921622  0.2498685023767568  0.7437708941717216
  0.1874559175921622  0.7498685023767567  0.7437708941717216
  0.7065323472331337  0.7499480478518518  0.7140598145093722
  0.3071620475095722  0.2500338150199480  0.2747245752271110
  0.8019123903238627  0.2499734662132186  0.2730440177214962
  0.3019123903238626  0.7499734662132185  0.2730440177214962
  0.8071620475095721  0.7500338150199480  0.2747245752271110
  0.3071620475095722  0.2500338150199480  0.7747245752271108
  0.8019123903238625  0.2499734662132186  0.7730440177214962
  0.3019123903238626  0.7499734662132185  0.7730440177214962
  0.8071620475095720  0.7500338150199480  0.7747245752271109
  0.2275185609730913  0.2498198318828827  0.1289356029958158
  0.6826317735004149  0.2498223607651781  0.1568416488976125
  0.1826317735004151  0.7498223607651781  0.1568416488976125
  0.7275185609730912  0.7498198318828826  0.1289356029958158
  0.2275185609730913  0.2498198318828827  0.6289356029958159
  0.6826317735004149  0.2498223607651781  0.6568416488976125
  0.1826317735004150  0.7498223607651781  0.6568416488976125
  0.7275185609730911  0.7498198318828826  0.6289356029958159
  0.1602995161270613  0.3225005682934885  0.2347010730124595
  0.6483760972297858  0.3222038050872661  0.2763295654801752
  0.1483760972297858  0.8222038050872662  0.2763295654801752
  0.6602995161270613  0.8225005682934885  0.2347010730124595
  0.1602995161270613  0.3225005682934885  0.7347010730124596
  0.6483760972297856  0.3222038050872661  0.7763295654801751
  0.1483760972297858  0.8222038050872661  0.7763295654801751
  0.6602995161270611  0.8225005682934885  0.7347010730124596
  0.1603439907374984  0.1774532924160929  0.2349067881419436
  0.6485416765409687  0.1774988545342318  0.2763946252786817
  0.1485416765409688  0.6774988545342316  0.2763946252786817
  0.6603439907374982  0.6774532924160929  0.2349067881419435
  0.1603439907374984  0.1774532924160929  0.7349067881419437
  0.6485416765409687  0.1774988545342318  0.7763946252786816
  0.1485416765409688  0.6774988545342318  0.7763946252786816
  0.6603439907374981  0.6774532924160928  0.7349067881419437
  0.3537795245434950  0.3181923871348716  0.2578484122332474
  0.8424896302099141  0.3175561786795738  0.2436645697332304
  0.3424896302099141  0.8175561786795736  0.2436645697332304
  0.8537795245434949  0.8181923871348716  0.2578484122332474
  0.3537795245434950  0.3181923871348716  0.7578484122332474
  0.8424896302099139  0.3175561786795738  0.7436645697332306
  0.3424896302099142  0.8175561786795735  0.7436645697332305
  0.8537795245434947  0.8181923871348717  0.7578484122332473
  0.3537914380831754  0.1818004603339236  0.2580561729633811
  0.8426191624239032  0.1824093146087418  0.2437256266917461
  0.3426191624239033  0.6824093146087419  0.2437256266917461
  0.8537914380831754  0.6818004603339235  0.2580561729633811
  0.3537914380831755  0.1818004603339236  0.7580561729633811
  0.8426191624239031  0.1824093146087418  0.7437256266917460
  0.3426191624239034  0.6824093146087418  0.7437256266917460
  0.8537914380831754  0.6818004603339235  0.7580561729633811
  0.2924587307394861  0.2501759752598154  0.3560341964541818
  0.8138814152065419  0.2500110681791262  0.3551842928854826
  0.3138814152065419  0.7500110681791263  0.3551842928854826
  0.7924587307394858  0.7501759752598155  0.3560341964541817
  0.2924587307394861  0.2501759752598154  0.8560341964541818
  0.8138814152065420  0.2500110681791262  0.8551842928854828
  0.3138814152065419  0.7500110681791263  0.8551842928854828
  0.7924587307394858  0.7501759752598154  0.8560341964541818
  0.4724501375952673  0.5015451607842484  0.4888093737464236
  0.9724334143624556  0.4984344289456197  0.4888135202831843
  0.4724334143624555  0.9984344289456197  0.4888135202831843
  0.9724501375952670  0.0015451607842485  0.4888093737464236
  0.4724501375952673  0.5015451607842484  0.9888093737464237
  0.9724334143624555  0.4984344289456198  0.9888135202831843
  0.4724334143624555  0.9984344289456197  0.9888135202831843
  0.9724501375952671  0.0015451607842483  0.9888093737464239
  0.4547668516407521  0.5008192256899742  0.2375678128797283
  0.9547204970190495  0.4991628733346535  0.2375776710372612
  0.4547204970190498  0.9991628733346536  0.2375776710372612
  0.9547668516407520  0.0008192256899739  0.2375678128797284
  0.4547668516407520  0.5008192256899742  0.7375678128797282
  0.9547204970190496  0.4991628733346535  0.7375776710372612
  0.4547204970190497  0.9991628733346536  0.7375776710372612
  0.9547668516407520  0.0008192256899742  0.7375678128797283
  0.4795967632611676  0.2499730920264555  0.0062017912759909
  0.9196741158666228  0.2499849290646266  0.0174626441924279
  0.4196741158666228  0.7499849290646265  0.0174626441924279
  0.9795967632611674  0.7499730920264555  0.0062017912759909
  0.4795967632611676  0.2499730920264555  0.5062017912759910
  0.9196741158666228  0.2499849290646266  0.5174626441924278
  0.4196741158666228  0.7499849290646264  0.5174626441924278
  0.9795967632611674  0.7499730920264555  0.5062017912759909
  0.2161786707842334  0.4642365952269344  0.4612396965037752
  0.7161642060963419  0.5357582774906092  0.4612397071834374
  0.2161642060963420  0.0357582774906091  0.4612397071834374
  0.7161786707842334  0.9642365952269342  0.4612396965037752
  0.2161786707842334  0.4642365952269344  0.9612396965037753
  0.7161642060963419  0.5357582774906092  0.9612397071834374
  0.2161642060963420  0.0357582774906091  0.9612397071834375
  0.7161786707842333  0.9642365952269342  0.9612396965037752
