Automatically generated mesh (16 to ignore)
    71 
Reciprocal lattice
    0.00000000000000    0.00000000000000    0.00000000000000             1
    0.16666666666667    0.00000000000000    0.00000000000000             8
    0.33333333333333    0.00000000000000    0.00000000000000             8
    0.50000000000000    0.00000000000000    0.00000000000000             4
    0.16666666666667    0.16666666666667    0.00000000000000             6
    0.33333333333333    0.16666666666667    0.00000000000000            24
    0.50000000000000    0.16666666666667    0.00000000000000            24
   -0.33333333333333    0.16666666666667    0.00000000000000            24
   -0.16666666666667    0.16666666666667    0.00000000000000            12
    0.33333333333333    0.33333333333333    0.00000000000000             6
    0.50000000000000    0.33333333333333    0.00000000000000            24
   -0.33333333333333    0.33333333333333    0.00000000000000            12
    0.50000000000000    0.50000000000000    0.00000000000000             3
    0.50000000000000    0.33333333333333    0.16666666666667            24
   -0.33333333333333    0.33333333333333    0.16666666666667            24
   -0.33333333333333    0.50000000000000    0.16666666666667            12
0.00000000  0.00000000  0.00000000   0.00
0.05000000  0.00000000  0.05000000   0.00
0.09999999  0.00000000  0.09999999   0.00
0.14999999  0.00000000  0.14999999   0.00
0.19999999  0.00000000  0.19999999   0.00
0.24999999  0.00000000  0.24999999   0.00
0.29999998  0.00000000  0.29999998   0.00
0.34999999  0.00000000  0.34999999   0.00
0.39999998  0.00000000  0.39999998   0.00
0.44999996  0.00000000  0.44999996   0.00
0.49999997  0.00000000  0.49999997   0.00
0.50000000  0.08333334  0.54166669   0.00
0.50000000  0.16666667  0.58333331   0.00
0.50000000  0.25000000  0.62500000   0.00
0.45833334  0.29166666  0.66666669   0.00
0.41666666  0.33333334  0.70833331   0.00
0.37500000  0.37500000  0.75000000   0.00
0.34375000  0.34375000  0.68750000   0.00
0.31250000  0.31250000  0.62500000   0.00
0.28125000  0.28125000  0.56250000   0.00
0.24999999  0.24999999  0.49999997   0.00
0.21875000  0.21875000  0.43750000   0.00
0.18749999  0.18749999  0.37499997   0.00
0.15624999  0.15624999  0.31249997   0.00
0.12499997  0.12499997  0.24999994   0.00
0.09374997  0.09374997  0.18749994   0.00
0.06250000  0.06250000  0.12500000   0.00
0.03124997  0.03124997  0.06249994   0.00
-.00000003  -.00000003  -.00000006   0.00
0.04166667  0.04166667  0.04166667   0.00
0.08333334  0.08333334  0.08333334   0.00
0.12500000  0.12500000  0.12500000   0.00
0.16666667  0.16666667  0.16666667   0.00
0.20833333  0.20833333  0.20833333   0.00
0.25000000  0.25000000  0.25000000   0.00
0.29166669  0.29166669  0.29166669   0.00
0.33333334  0.33333334  0.33333334   0.00
0.37500000  0.37500000  0.37500000   0.00
0.41666666  0.41666666  0.41666666   0.00
0.45833334  0.45833334  0.45833334   0.00
0.50000000  0.50000000  0.50000000   0.00
0.53125000  0.43750000  0.53125000   0.00
0.56250000  0.37500000  0.56250000   0.00
0.59375000  0.31250000  0.59375000   0.00
0.62500000  0.25000000  0.62500000   0.00
0.56250000  0.25000000  0.68750000   0.00
0.50000000  0.25000000  0.75000000   0.00
0.50000000  0.30000001  0.69999999   0.00
0.50000000  0.34999999  0.64999998   0.00
0.50000000  0.39999998  0.60000002   0.00
0.50000000  0.44999999  0.55000001   0.00
0.50000000  0.50000000  0.50000000   0.00
0.46875000  0.46875000  0.56250000   0.00
0.43750000  0.43750000  0.62500000   0.00
0.40625000  0.40625000  0.68750000   0.00
0.37500000  0.37500000  0.75000000   0.00
