Automatically generated mesh (112 to ignore)
     176
Reciprocal lattice
    0.00000000000000    0.00000000000000    0.00000000000000             1
    0.16666666666667    0.00000000000000    0.00000000000000             2
    0.33333333333333    0.00000000000000    0.00000000000000             2
    0.50000000000000    0.00000000000000    0.00000000000000             1
    0.00000000000000    0.16666666666667    0.00000000000000             2
    0.16666666666667    0.16666666666667    0.00000000000000             2
    0.33333333333333    0.16666666666667    0.00000000000000             2
    0.50000000000000    0.16666666666667    0.00000000000000             2
   -0.33333333333333    0.16666666666667   -0.00000000000000             2
   -0.16666666666667    0.16666666666667   -0.00000000000000             2
    0.00000000000000    0.33333333333333    0.00000000000000             2
    0.16666666666667    0.33333333333333    0.00000000000000             2
    0.33333333333333    0.33333333333333    0.00000000000000             2
    0.50000000000000    0.33333333333333    0.00000000000000             2
   -0.33333333333333    0.33333333333333    0.00000000000000             2
   -0.16666666666667    0.33333333333333   -0.00000000000000             2
    0.00000000000000    0.50000000000000    0.00000000000000             1
    0.16666666666667    0.50000000000000    0.00000000000000             2
    0.33333333333333    0.50000000000000    0.00000000000000             2
    0.50000000000000    0.50000000000000    0.00000000000000             1
    0.00000000000000    0.00000000000000    0.16666666666667             2
    0.16666666666667    0.00000000000000    0.16666666666667             2
    0.33333333333333    0.00000000000000    0.16666666666667             2
    0.50000000000000    0.00000000000000    0.16666666666667             2
   -0.33333333333333   -0.00000000000000    0.16666666666667             2
   -0.16666666666667   -0.00000000000000    0.16666666666667             2
    0.00000000000000    0.16666666666667    0.16666666666667             2
    0.16666666666667    0.16666666666667    0.16666666666667             2
    0.33333333333333    0.16666666666667    0.16666666666667             2
    0.50000000000000    0.16666666666667    0.16666666666667             2
   -0.33333333333333    0.16666666666667    0.16666666666667             2
   -0.16666666666667    0.16666666666667    0.16666666666667             2
    0.00000000000000    0.33333333333333    0.16666666666667             2
    0.16666666666667    0.33333333333333    0.16666666666667             2
    0.33333333333333    0.33333333333333    0.16666666666667             2
    0.50000000000000    0.33333333333333    0.16666666666667             2
   -0.33333333333333    0.33333333333333    0.16666666666667             2
   -0.16666666666667    0.33333333333333    0.16666666666667             2
    0.00000000000000    0.50000000000000    0.16666666666667             2
    0.16666666666667    0.50000000000000    0.16666666666667             2
    0.33333333333333    0.50000000000000    0.16666666666667             2
    0.50000000000000    0.50000000000000    0.16666666666667             2
   -0.33333333333333    0.50000000000000    0.16666666666667             2
   -0.16666666666667    0.50000000000000    0.16666666666667             2
    0.00000000000000   -0.33333333333333    0.16666666666667             2
    0.16666666666667   -0.33333333333333    0.16666666666667             2
    0.33333333333333   -0.33333333333333    0.16666666666667             2
    0.50000000000000   -0.33333333333333    0.16666666666667             2
   -0.33333333333333   -0.33333333333333    0.16666666666667             2
   -0.16666666666667   -0.33333333333333    0.16666666666667             2
    0.00000000000000   -0.16666666666667    0.16666666666667             2
    0.16666666666667   -0.16666666666667    0.16666666666667             2
    0.33333333333333   -0.16666666666667    0.16666666666667             2
    0.50000000000000   -0.16666666666667    0.16666666666667             2
   -0.33333333333333   -0.16666666666667    0.16666666666667             2
   -0.16666666666667   -0.16666666666667    0.16666666666667             2
    0.00000000000000    0.00000000000000    0.33333333333333             2
    0.16666666666667    0.00000000000000    0.33333333333333             2
    0.33333333333333    0.00000000000000    0.33333333333333             2
    0.50000000000000    0.00000000000000    0.33333333333333             2
   -0.33333333333333   -0.00000000000000    0.33333333333333             2
   -0.16666666666667   -0.00000000000000    0.33333333333333             2
    0.00000000000000    0.16666666666667    0.33333333333333             2
    0.16666666666667    0.16666666666667    0.33333333333333             2
    0.33333333333333    0.16666666666667    0.33333333333333             2
    0.50000000000000    0.16666666666667    0.33333333333333             2
   -0.33333333333333    0.16666666666667    0.33333333333333             2
   -0.16666666666667    0.16666666666667    0.33333333333333             2
    0.00000000000000    0.33333333333333    0.33333333333333             2
    0.16666666666667    0.33333333333333    0.33333333333333             2
    0.33333333333333    0.33333333333333    0.33333333333333             2
    0.50000000000000    0.33333333333333    0.33333333333333             2
   -0.33333333333333    0.33333333333333    0.33333333333333             2
   -0.16666666666667    0.33333333333333    0.33333333333333             2
    0.00000000000000    0.50000000000000    0.33333333333333             2
    0.16666666666667    0.50000000000000    0.33333333333333             2
    0.33333333333333    0.50000000000000    0.33333333333333             2
    0.50000000000000    0.50000000000000    0.33333333333333             2
   -0.33333333333333    0.50000000000000    0.33333333333333             2
   -0.16666666666667    0.50000000000000    0.33333333333333             2
    0.00000000000000   -0.33333333333333    0.33333333333333             2
    0.16666666666667   -0.33333333333333    0.33333333333333             2
    0.33333333333333   -0.33333333333333    0.33333333333333             2
    0.50000000000000   -0.33333333333333    0.33333333333333             2
   -0.33333333333333   -0.33333333333333    0.33333333333333             2
   -0.16666666666667   -0.33333333333333    0.33333333333333             2
    0.00000000000000   -0.16666666666667    0.33333333333333             2
    0.16666666666667   -0.16666666666667    0.33333333333333             2
    0.33333333333333   -0.16666666666667    0.33333333333333             2
    0.50000000000000   -0.16666666666667    0.33333333333333             2
   -0.33333333333333   -0.16666666666667    0.33333333333333             2
   -0.16666666666667   -0.16666666666667    0.33333333333333             2
    0.00000000000000    0.00000000000000    0.50000000000000             1
    0.16666666666667    0.00000000000000    0.50000000000000             2
    0.33333333333333    0.00000000000000    0.50000000000000             2
    0.50000000000000    0.00000000000000    0.50000000000000             1
    0.00000000000000    0.16666666666667    0.50000000000000             2
    0.16666666666667    0.16666666666667    0.50000000000000             2
    0.33333333333333    0.16666666666667    0.50000000000000             2
    0.50000000000000    0.16666666666667    0.50000000000000             2
   -0.33333333333333    0.16666666666667    0.50000000000000             2
   -0.16666666666667    0.16666666666667    0.50000000000000             2
    0.00000000000000    0.33333333333333    0.50000000000000             2
    0.16666666666667    0.33333333333333    0.50000000000000             2
    0.33333333333333    0.33333333333333    0.50000000000000             2
    0.50000000000000    0.33333333333333    0.50000000000000             2
   -0.33333333333333    0.33333333333333    0.50000000000000             2
   -0.16666666666667    0.33333333333333    0.50000000000000             2
    0.00000000000000    0.50000000000000    0.50000000000000             1
    0.16666666666667    0.50000000000000    0.50000000000000             2
    0.33333333333333    0.50000000000000    0.50000000000000             2
    0.50000000000000    0.50000000000000    0.50000000000000             1
0.00000000  0.00000000  0.00000000   0.00
0.00000000  0.05000000  0.00000000   0.00
0.00000000  0.10000000  0.00000000   0.00
0.00000000  0.15000001  0.00000000   0.00
0.00000000  0.20000000  0.00000000   0.00
0.00000000  0.25000000  0.00000000   0.00
0.00000000  0.30000001  0.00000000   0.00
0.00000000  0.34999999  0.00000000   0.00
0.00000000  0.40000001  0.00000000   0.00
0.00000000  0.45000002  0.00000000   0.00
0.00000000  0.50000000  0.00000000   0.00
0.05555556  0.50000000  0.00000000   0.00
0.11111111  0.50000000  0.00000000   0.00
0.16666667  0.50000000  0.00000000   0.00
0.22222222  0.50000000  0.00000000   0.00
0.27777779  0.50000000  0.00000000   0.00
0.33333334  0.50000000  0.00000000   0.00
0.38888890  0.50000000  0.00000000   0.00
0.44444445  0.50000000  0.00000000   0.00
0.50000000  0.50000000  0.00000000   0.00
0.46428570  0.46428570  0.00000000   0.00
0.42857143  0.42857143  0.00000000   0.00
0.39285713  0.39285713  0.00000000   0.00
0.35714287  0.35714287  0.00000000   0.00
0.32142857  0.32142857  0.00000000   0.00
0.28571430  0.28571430  0.00000000   0.00
0.25000000  0.25000000  0.00000000   0.00
0.21428570  0.21428570  0.00000000   0.00
0.17857140  0.17857140  0.00000000   0.00
0.14285713  0.14285713  0.00000000   0.00
0.10714287  0.10714287  0.00000000   0.00
0.07142860  0.07142860  0.00000000   0.00
0.03571427  0.03571427  0.00000000   0.00
0.00000000  0.00000000  0.00000000   0.00
0.02941176  0.02941176  0.02941176   0.00
0.05882353  0.05882353  0.05882353   0.00
0.08823530  0.08823530  0.08823530   0.00
0.11764706  0.11764706  0.11764706   0.00
0.14705883  0.14705883  0.14705883   0.00
0.17647059  0.17647059  0.17647059   0.00
0.20588236  0.20588236  0.20588236   0.00
0.23529412  0.23529412  0.23529412   0.00
0.26470587  0.26470587  0.26470587   0.00
0.29411766  0.29411766  0.29411766   0.00
0.32352942  0.32352942  0.32352942   0.00
0.35294119  0.35294119  0.35294119   0.00
0.38235292  0.38235292  0.38235292   0.00
0.41176471  0.41176471  0.41176471   0.00
0.44117647  0.44117647  0.44117647   0.00
0.47058824  0.47058824  0.47058824   0.00
0.50000000  0.50000000  0.50000000   0.00
0.42857143  0.50000000  0.42857143   0.00
0.39285713  0.50000000  0.39285713   0.00
0.35714287  0.50000000  0.35714287   0.00
0.32142857  0.50000000  0.32142857   0.00
0.28571430  0.50000000  0.28571430   0.00
0.25000000  0.50000000  0.25000000   0.00
0.21428570  0.50000000  0.21428570   0.00
0.17857140  0.50000000  0.17857140   0.00
0.14285713  0.50000000  0.14285713   0.00
0.10714287  0.50000000  0.10714287   0.00
0.07142860  0.50000000  0.07142860   0.00
0.03571427  0.50000000  0.03571427   0.00
0.00000000  0.50000000  0.00000000   0.00
