Automatically generated mesh (51 to ignore)
      814
Reciprocal lattice
    0.00000000000000    0.00000000000000    0.00000000000000             1
    0.16666666666667    0.00000000000000    0.00000000000000             4
    0.33333333333333    0.00000000000000    0.00000000000000             4
    0.50000000000000    0.00000000000000    0.00000000000000             4
    0.16666666666667    0.16666666666667    0.00000000000000             2
    0.33333333333333    0.16666666666667    0.00000000000000             4
    0.50000000000000    0.16666666666667    0.00000000000000             4
   -0.33333333333333    0.16666666666667    0.00000000000000             2
   -0.16666666666667    0.16666666666667    0.00000000000000             2
    0.16666666666667    0.33333333333333    0.00000000000000             4
    0.33333333333333    0.33333333333333    0.00000000000000             2
    0.50000000000000    0.33333333333333   -0.00000000000000             4
   -0.33333333333333    0.33333333333333    0.00000000000000             2
   -0.16666666666667    0.33333333333333    0.00000000000000             2
    0.16666666666667    0.50000000000000    0.00000000000000             4
    0.33333333333333    0.50000000000000   -0.00000000000000             4
    0.50000000000000    0.50000000000000    0.00000000000000             2
    0.00000000000000    0.00000000000000    0.25000000000000             2
    0.16666666666667    0.00000000000000    0.25000000000000             4
    0.33333333333333    0.00000000000000    0.25000000000000             4
    0.50000000000000    0.00000000000000    0.25000000000000             4
   -0.33333333333333    0.00000000000000    0.25000000000000             4
   -0.16666666666667    0.00000000000000    0.25000000000000             4
    0.16666666666667    0.16666666666667    0.25000000000000             2
    0.33333333333333    0.16666666666667    0.25000000000000             2
    0.50000000000000    0.16666666666667    0.25000000000000             4
   -0.33333333333333    0.16666666666667    0.25000000000000             2
   -0.16666666666667    0.16666666666667    0.25000000000000             4
    0.16666666666667    0.33333333333333    0.25000000000000             2
    0.33333333333333    0.33333333333333    0.25000000000000             2
    0.50000000000000    0.33333333333333    0.25000000000000             4
   -0.33333333333333    0.33333333333333    0.25000000000000             4
   -0.16666666666667    0.33333333333333    0.25000000000000             2
    0.16666666666667    0.50000000000000    0.25000000000000             4
    0.33333333333333    0.50000000000000    0.25000000000000             4
    0.50000000000000    0.50000000000000    0.25000000000000             2
    0.16666666666667   -0.33333333333333    0.25000000000000             2
   -0.33333333333333   -0.33333333333333    0.25000000000000             2
   -0.16666666666667   -0.33333333333333    0.25000000000000             2
    0.33333333333333   -0.16666666666667    0.25000000000000             2
   -0.33333333333333   -0.16666666666667    0.25000000000000             2
   -0.16666666666667   -0.16666666666667    0.25000000000000             2
    0.00000000000000    0.00000000000000    0.50000000000000             1
    0.16666666666667    0.00000000000000    0.50000000000000             4
    0.33333333333333    0.00000000000000    0.50000000000000             4
    0.16666666666667    0.16666666666667    0.50000000000000             2
   -0.33333333333333    0.16666666666667    0.50000000000000             2
   -0.16666666666667    0.16666666666667    0.50000000000000             2
    0.33333333333333    0.33333333333333    0.50000000000000             2
   -0.33333333333333    0.33333333333333    0.50000000000000             2
   -0.16666666666667    0.33333333333333    0.50000000000000             2
0.00000000  0.00000000  0.00000000   0.00
0.00000000  0.00500000  0.00000000   0.00
0.00000000  0.01000000  0.00000000   0.00
0.00000000  0.01500000  0.00000000   0.00
0.00000000  0.02000000  0.00000000   0.00
0.00000000  0.02500000  0.00000000   0.00
0.00000000  0.03000000  0.00000000   0.00
0.00000000  0.03500000  0.00000000   0.00
0.00000000  0.04000000  0.00000000   0.00
0.00000000  0.04500000  0.00000000   0.00
0.00000000  0.05000000  0.00000000   0.00
0.00000000  0.05500000  0.00000000   0.00
0.00000000  0.06000000  0.00000000   0.00
0.00000000  0.06500000  0.00000000   0.00
0.00000000  0.07000000  0.00000000   0.00
0.00000000  0.07500000  0.00000000   0.00
0.00000000  0.08000000  0.00000000   0.00
0.00000000  0.08500000  0.00000000   0.00
0.00000000  0.09000000  0.00000000   0.00
0.00000000  0.09500000  0.00000000   0.00
0.00000000  0.09999999  0.00000000   0.00
0.00000000  0.10500000  0.00000000   0.00
0.00000000  0.11000000  0.00000000   0.00
0.00000000  0.11499999  0.00000000   0.00
0.00000000  0.12000000  0.00000000   0.00
0.00000000  0.12500000  0.00000000   0.00
0.00000000  0.13000000  0.00000000   0.00
0.00000000  0.13499999  0.00000000   0.00
0.00000000  0.14000000  0.00000000   0.00
0.00000000  0.14500000  0.00000000   0.00
0.00000000  0.14999999  0.00000000   0.00
0.00000000  0.15500000  0.00000000   0.00
0.00000000  0.16000000  0.00000000   0.00
0.00000000  0.16499999  0.00000000   0.00
0.00000000  0.17000000  0.00000000   0.00
0.00000000  0.17500000  0.00000000   0.00
0.00000000  0.17999999  0.00000000   0.00
0.00000000  0.18500000  0.00000000   0.00
0.00000000  0.19000000  0.00000000   0.00
0.00000000  0.19499999  0.00000000   0.00
0.00000000  0.19999999  0.00000000   0.00
0.00000000  0.20500000  0.00000000   0.00
0.00000000  0.20999999  0.00000000   0.00
0.00000000  0.21499999  0.00000000   0.00
0.00000000  0.22000000  0.00000000   0.00
0.00000000  0.22499999  0.00000000   0.00
0.00000000  0.22999999  0.00000000   0.00
0.00000000  0.23500000  0.00000000   0.00
0.00000000  0.23999999  0.00000000   0.00
0.00000000  0.24499999  0.00000000   0.00
0.00000000  0.25000000  0.00000000   0.00
0.00000000  0.25500000  0.00000000   0.00
0.00000000  0.25999999  0.00000000   0.00
0.00000000  0.26499999  0.00000000   0.00
0.00000000  0.26999998  0.00000000   0.00
0.00000000  0.27500001  0.00000000   0.00
0.00000000  0.28000000  0.00000000   0.00
0.00000000  0.28500000  0.00000000   0.00
0.00000000  0.28999999  0.00000000   0.00
0.00000000  0.29499999  0.00000000   0.00
0.00000000  0.29999998  0.00000000   0.00
0.00000000  0.30500001  0.00000000   0.00
0.00000000  0.31000000  0.00000000   0.00
0.00000000  0.31500000  0.00000000   0.00
0.00000000  0.31999999  0.00000000   0.00
0.00000000  0.32499999  0.00000000   0.00
0.00000000  0.32999998  0.00000000   0.00
0.00000000  0.33499998  0.00000000   0.00
0.00000000  0.34000000  0.00000000   0.00
0.00000000  0.34500000  0.00000000   0.00
0.00000000  0.34999999  0.00000000   0.00
0.00000000  0.35499999  0.00000000   0.00
0.00000000  0.35999998  0.00000000   0.00
0.00000000  0.36499998  0.00000000   0.00
0.00000000  0.37000000  0.00000000   0.00
0.00000000  0.37500000  0.00000000   0.00
0.00000000  0.38000000  0.00000000   0.00
0.00000000  0.38499999  0.00000000   0.00
0.00000000  0.38999999  0.00000000   0.00
0.00000000  0.39499998  0.00000000   0.00
0.00000000  0.39999998  0.00000000   0.00
0.00000000  0.40500000  0.00000000   0.00
0.00000000  0.41000000  0.00000000   0.00
0.00000000  0.41499999  0.00000000   0.00
0.00000000  0.41999999  0.00000000   0.00
0.00000000  0.42499998  0.00000000   0.00
0.00000000  0.42999998  0.00000000   0.00
0.00000000  0.43500000  0.00000000   0.00
0.00000000  0.44000000  0.00000000   0.00
0.00000000  0.44499999  0.00000000   0.00
0.00000000  0.44999999  0.00000000   0.00
0.00000000  0.45499998  0.00000000   0.00
0.00000000  0.45999998  0.00000000   0.00
0.00000000  0.46500000  0.00000000   0.00
0.00000000  0.47000000  0.00000000   0.00
0.00000000  0.47499999  0.00000000   0.00
0.00000000  0.47999999  0.00000000   0.00
0.00000000  0.48499998  0.00000000   0.00
0.00000000  0.48999998  0.00000000   0.00
0.00000000  0.49499997  0.00000000   0.00
0.00000000  0.50000000  0.00000000   0.00
0.00500000  0.50000000  0.00000000   0.00
0.01000000  0.50000000  0.00000000   0.00
0.01500000  0.50000000  0.00000000   0.00
0.02000000  0.50000000  0.00000000   0.00
0.02500000  0.50000000  0.00000000   0.00
0.03000000  0.50000000  0.00000000   0.00
0.03500000  0.50000000  0.00000000   0.00
0.04000000  0.50000000  0.00000000   0.00
0.04500000  0.50000000  0.00000000   0.00
0.05000000  0.50000000  0.00000000   0.00
0.05500000  0.50000000  0.00000000   0.00
0.06000000  0.50000000  0.00000000   0.00
0.06500000  0.50000000  0.00000000   0.00
0.07000000  0.50000000  0.00000000   0.00
0.07500000  0.50000000  0.00000000   0.00
0.08000000  0.50000000  0.00000000   0.00
0.08500000  0.50000000  0.00000000   0.00
0.09000000  0.50000000  0.00000000   0.00
0.09500000  0.50000000  0.00000000   0.00
0.09999999  0.50000000  0.00000000   0.00
0.10500000  0.50000000  0.00000000   0.00
0.11000000  0.50000000  0.00000000   0.00
0.11499999  0.50000000  0.00000000   0.00
0.12000000  0.50000000  0.00000000   0.00
0.12500000  0.50000000  0.00000000   0.00
0.13000000  0.50000000  0.00000000   0.00
0.13499999  0.50000000  0.00000000   0.00
0.14000000  0.50000000  0.00000000   0.00
0.14500000  0.50000000  0.00000000   0.00
0.14999999  0.50000000  0.00000000   0.00
0.15500000  0.50000000  0.00000000   0.00
0.16000000  0.50000000  0.00000000   0.00
0.16499999  0.50000000  0.00000000   0.00
0.17000000  0.50000000  0.00000000   0.00
0.17500000  0.50000000  0.00000000   0.00
0.17999999  0.50000000  0.00000000   0.00
0.18500000  0.50000000  0.00000000   0.00
0.19000000  0.50000000  0.00000000   0.00
0.19499999  0.50000000  0.00000000   0.00
0.19999999  0.50000000  0.00000000   0.00
0.20500000  0.50000000  0.00000000   0.00
0.20999999  0.50000000  0.00000000   0.00
0.21499999  0.50000000  0.00000000   0.00
0.22000000  0.50000000  0.00000000   0.00
0.22499999  0.50000000  0.00000000   0.00
0.22999999  0.50000000  0.00000000   0.00
0.23500000  0.50000000  0.00000000   0.00
0.23999999  0.50000000  0.00000000   0.00
0.24499999  0.50000000  0.00000000   0.00
0.25000000  0.50000000  0.00000000   0.00
0.25500000  0.50000000  0.00000000   0.00
0.25999999  0.50000000  0.00000000   0.00
0.26499999  0.50000000  0.00000000   0.00
0.26999998  0.50000000  0.00000000   0.00
0.27500001  0.50000000  0.00000000   0.00
0.28000000  0.50000000  0.00000000   0.00
0.28500000  0.50000000  0.00000000   0.00
0.28999999  0.50000000  0.00000000   0.00
0.29499999  0.50000000  0.00000000   0.00
0.29999998  0.50000000  0.00000000   0.00
0.30500001  0.50000000  0.00000000   0.00
0.31000000  0.50000000  0.00000000   0.00
0.31500000  0.50000000  0.00000000   0.00
0.31999999  0.50000000  0.00000000   0.00
0.32499999  0.50000000  0.00000000   0.00
0.32999998  0.50000000  0.00000000   0.00
0.33499998  0.50000000  0.00000000   0.00
0.34000000  0.50000000  0.00000000   0.00
0.34500000  0.50000000  0.00000000   0.00
0.34999999  0.50000000  0.00000000   0.00
0.35499999  0.50000000  0.00000000   0.00
0.35999998  0.50000000  0.00000000   0.00
0.36499998  0.50000000  0.00000000   0.00
0.37000000  0.50000000  0.00000000   0.00
0.37500000  0.50000000  0.00000000   0.00
0.38000000  0.50000000  0.00000000   0.00
0.38499999  0.50000000  0.00000000   0.00
0.38999999  0.50000000  0.00000000   0.00
0.39499998  0.50000000  0.00000000   0.00
0.39999998  0.50000000  0.00000000   0.00
0.40500000  0.50000000  0.00000000   0.00
0.41000000  0.50000000  0.00000000   0.00
0.41499999  0.50000000  0.00000000   0.00
0.41999999  0.50000000  0.00000000   0.00
0.42499998  0.50000000  0.00000000   0.00
0.42999998  0.50000000  0.00000000   0.00
0.43500000  0.50000000  0.00000000   0.00
0.44000000  0.50000000  0.00000000   0.00
0.44499999  0.50000000  0.00000000   0.00
0.44999999  0.50000000  0.00000000   0.00
0.45499998  0.50000000  0.00000000   0.00
0.45999998  0.50000000  0.00000000   0.00
0.46500000  0.50000000  0.00000000   0.00
0.47000000  0.50000000  0.00000000   0.00
0.47499999  0.50000000  0.00000000   0.00
0.47999999  0.50000000  0.00000000   0.00
0.48499998  0.50000000  0.00000000   0.00
0.48999998  0.50000000  0.00000000   0.00
0.49499997  0.50000000  0.00000000   0.00
0.50000000  0.50000000  0.00000000   0.00
0.49645391  0.49645391  0.00000000   0.00
0.49290779  0.49290779  0.00000000   0.00
0.48936170  0.48936170  0.00000000   0.00
0.48581561  0.48581561  0.00000000   0.00
0.48226950  0.48226950  0.00000000   0.00
0.47872341  0.47872341  0.00000000   0.00
0.47517732  0.47517732  0.00000000   0.00
0.47163120  0.47163120  0.00000000   0.00
0.46808511  0.46808511  0.00000000   0.00
0.46453899  0.46453899  0.00000000   0.00
0.46099290  0.46099290  0.00000000   0.00
0.45744681  0.45744681  0.00000000   0.00
0.45390069  0.45390069  0.00000000   0.00
0.45035461  0.45035461  0.00000000   0.00
0.44680852  0.44680852  0.00000000   0.00
0.44326240  0.44326240  0.00000000   0.00
0.43971631  0.43971631  0.00000000   0.00
0.43617022  0.43617022  0.00000000   0.00
0.43262410  0.43262410  0.00000000   0.00
0.42907801  0.42907801  0.00000000   0.00
0.42553192  0.42553192  0.00000000   0.00
0.42198581  0.42198581  0.00000000   0.00
0.41843972  0.41843972  0.00000000   0.00
0.41489363  0.41489363  0.00000000   0.00
0.41134751  0.41134751  0.00000000   0.00
0.40780142  0.40780142  0.00000000   0.00
0.40425533  0.40425533  0.00000000   0.00
0.40070921  0.40070921  0.00000000   0.00
0.39716312  0.39716312  0.00000000   0.00
0.39361703  0.39361703  0.00000000   0.00
0.39007092  0.39007092  0.00000000   0.00
0.38652483  0.38652483  0.00000000   0.00
0.38297874  0.38297874  0.00000000   0.00
0.37943262  0.37943262  0.00000000   0.00
0.37588653  0.37588653  0.00000000   0.00
0.37234044  0.37234044  0.00000000   0.00
0.36879432  0.36879432  0.00000000   0.00
0.36524823  0.36524823  0.00000000   0.00
0.36170214  0.36170214  0.00000000   0.00
0.35815603  0.35815603  0.00000000   0.00
0.35460994  0.35460994  0.00000000   0.00
0.35106385  0.35106385  0.00000000   0.00
0.34751773  0.34751773  0.00000000   0.00
0.34397164  0.34397164  0.00000000   0.00
0.34042555  0.34042555  0.00000000   0.00
0.33687943  0.33687943  0.00000000   0.00
0.33333334  0.33333334  0.00000000   0.00
0.32978722  0.32978722  0.00000000   0.00
0.32624114  0.32624114  0.00000000   0.00
0.32269502  0.32269502  0.00000000   0.00
0.31914896  0.31914896  0.00000000   0.00
0.31560284  0.31560284  0.00000000   0.00
0.31205675  0.31205675  0.00000000   0.00
0.30851063  0.30851063  0.00000000   0.00
0.30496454  0.30496454  0.00000000   0.00
0.30141842  0.30141842  0.00000000   0.00
0.29787236  0.29787236  0.00000000   0.00
0.29432625  0.29432625  0.00000000   0.00
0.29078016  0.29078016  0.00000000   0.00
0.28723404  0.28723404  0.00000000   0.00
0.28368795  0.28368795  0.00000000   0.00
0.28014183  0.28014183  0.00000000   0.00
0.27659577  0.27659577  0.00000000   0.00
0.27304965  0.27304965  0.00000000   0.00
0.26950353  0.26950353  0.00000000   0.00
0.26595744  0.26595744  0.00000000   0.00
0.26241136  0.26241136  0.00000000   0.00
0.25886524  0.25886524  0.00000000   0.00
0.25531915  0.25531915  0.00000000   0.00
0.25177306  0.25177306  0.00000000   0.00
0.24822694  0.24822694  0.00000000   0.00
0.24468085  0.24468085  0.00000000   0.00
0.24113473  0.24113473  0.00000000   0.00
0.23758867  0.23758867  0.00000000   0.00
0.23404256  0.23404256  0.00000000   0.00
0.23049647  0.23049647  0.00000000   0.00
0.22695035  0.22695035  0.00000000   0.00
0.22340426  0.22340426  0.00000000   0.00
0.21985814  0.21985814  0.00000000   0.00
0.21631205  0.21631205  0.00000000   0.00
0.21276596  0.21276596  0.00000000   0.00
0.20921987  0.20921987  0.00000000   0.00
0.20567375  0.20567375  0.00000000   0.00
0.20212767  0.20212767  0.00000000   0.00
0.19858155  0.19858155  0.00000000   0.00
0.19503546  0.19503546  0.00000000   0.00
0.19148937  0.19148937  0.00000000   0.00
0.18794328  0.18794328  0.00000000   0.00
0.18439716  0.18439716  0.00000000   0.00
0.18085107  0.18085107  0.00000000   0.00
0.17730495  0.17730495  0.00000000   0.00
0.17375886  0.17375886  0.00000000   0.00
0.17021278  0.17021278  0.00000000   0.00
0.16666669  0.16666669  0.00000000   0.00
0.16312057  0.16312057  0.00000000   0.00
0.15957445  0.15957445  0.00000000   0.00
0.15602836  0.15602836  0.00000000   0.00
0.15248227  0.15248227  0.00000000   0.00
0.14893618  0.14893618  0.00000000   0.00
0.14539006  0.14539006  0.00000000   0.00
0.14184394  0.14184394  0.00000000   0.00
0.13829789  0.13829789  0.00000000   0.00
0.13475177  0.13475177  0.00000000   0.00
0.13120568  0.13120568  0.00000000   0.00
0.12765956  0.12765956  0.00000000   0.00
0.12411350  0.12411350  0.00000000   0.00
0.12056738  0.12056738  0.00000000   0.00
0.11702126  0.11702126  0.00000000   0.00
0.11347517  0.11347517  0.00000000   0.00
0.10992908  0.10992908  0.00000000   0.00
0.10638300  0.10638300  0.00000000   0.00
0.10283688  0.10283688  0.00000000   0.00
0.09929076  0.09929076  0.00000000   0.00
0.09574470  0.09574470  0.00000000   0.00
0.09219858  0.09219858  0.00000000   0.00
0.08865249  0.08865249  0.00000000   0.00
0.08510637  0.08510637  0.00000000   0.00
0.08156031  0.08156031  0.00000000   0.00
0.07801419  0.07801419  0.00000000   0.00
0.07446808  0.07446808  0.00000000   0.00
0.07092199  0.07092199  0.00000000   0.00
0.06737590  0.06737590  0.00000000   0.00
0.06382981  0.06382981  0.00000000   0.00
0.06028369  0.06028369  0.00000000   0.00
0.05673757  0.05673757  0.00000000   0.00
0.05319151  0.05319151  0.00000000   0.00
0.04964539  0.04964539  0.00000000   0.00
0.04609931  0.04609931  0.00000000   0.00
0.04255319  0.04255319  0.00000000   0.00
0.03900707  0.03900707  0.00000000   0.00
0.03546101  0.03546101  0.00000000   0.00
0.03191489  0.03191489  0.00000000   0.00
0.02836880  0.02836880  0.00000000   0.00
0.02482268  0.02482268  0.00000000   0.00
0.02127662  0.02127662  0.00000000   0.00
0.01773050  0.01773050  0.00000000   0.00
0.01418439  0.01418439  0.00000000   0.00
0.01063830  0.01063830  0.00000000   0.00
0.00709221  0.00709221  0.00000000   0.00
0.00354612  0.00354612  0.00000000   0.00
0.00000000  0.00000000  0.00000000   0.00
0.00000000  0.00000000  0.00617284   0.00
0.00000000  0.00000000  0.01234568   0.00
0.00000000  0.00000000  0.01851852   0.00
0.00000000  0.00000000  0.02469136   0.00
0.00000000  0.00000000  0.03086420   0.00
0.00000000  0.00000000  0.03703704   0.00
0.00000000  0.00000000  0.04320988   0.00
0.00000000  0.00000000  0.04938272   0.00
0.00000000  0.00000000  0.05555556   0.00
0.00000000  0.00000000  0.06172840   0.00
0.00000000  0.00000000  0.06790124   0.00
0.00000000  0.00000000  0.07407407   0.00
0.00000000  0.00000000  0.08024691   0.00
0.00000000  0.00000000  0.08641975   0.00
0.00000000  0.00000000  0.09259260   0.00
0.00000000  0.00000000  0.09876543   0.00
0.00000000  0.00000000  0.10493827   0.00
0.00000000  0.00000000  0.11111111   0.00
0.00000000  0.00000000  0.11728396   0.00
0.00000000  0.00000000  0.12345679   0.00
0.00000000  0.00000000  0.12962963   0.00
0.00000000  0.00000000  0.13580248   0.00
0.00000000  0.00000000  0.14197531   0.00
0.00000000  0.00000000  0.14814815   0.00
0.00000000  0.00000000  0.15432099   0.00
0.00000000  0.00000000  0.16049382   0.00
0.00000000  0.00000000  0.16666667   0.00
0.00000000  0.00000000  0.17283951   0.00
0.00000000  0.00000000  0.17901234   0.00
0.00000000  0.00000000  0.18518519   0.00
0.00000000  0.00000000  0.19135803   0.00
0.00000000  0.00000000  0.19753087   0.00
0.00000000  0.00000000  0.20370370   0.00
0.00000000  0.00000000  0.20987654   0.00
0.00000000  0.00000000  0.21604939   0.00
0.00000000  0.00000000  0.22222222   0.00
0.00000000  0.00000000  0.22839506   0.00
0.00000000  0.00000000  0.23456791   0.00
0.00000000  0.00000000  0.24074075   0.00
0.00000000  0.00000000  0.24691358   0.00
0.00000000  0.00000000  0.25308642   0.00
0.00000000  0.00000000  0.25925925   0.00
0.00000000  0.00000000  0.26543209   0.00
0.00000000  0.00000000  0.27160496   0.00
0.00000000  0.00000000  0.27777779   0.00
0.00000000  0.00000000  0.28395063   0.00
0.00000000  0.00000000  0.29012346   0.00
0.00000000  0.00000000  0.29629630   0.00
0.00000000  0.00000000  0.30246913   0.00
0.00000000  0.00000000  0.30864197   0.00
0.00000000  0.00000000  0.31481481   0.00
0.00000000  0.00000000  0.32098764   0.00
0.00000000  0.00000000  0.32716051   0.00
0.00000000  0.00000000  0.33333334   0.00
0.00000000  0.00000000  0.33950618   0.00
0.00000000  0.00000000  0.34567901   0.00
0.00000000  0.00000000  0.35185185   0.00
0.00000000  0.00000000  0.35802469   0.00
0.00000000  0.00000000  0.36419752   0.00
0.00000000  0.00000000  0.37037039   0.00
0.00000000  0.00000000  0.37654322   0.00
0.00000000  0.00000000  0.38271606   0.00
0.00000000  0.00000000  0.38888890   0.00
0.00000000  0.00000000  0.39506173   0.00
0.00000000  0.00000000  0.40123457   0.00
0.00000000  0.00000000  0.40740740   0.00
0.00000000  0.00000000  0.41358024   0.00
0.00000000  0.00000000  0.41975307   0.00
0.00000000  0.00000000  0.42592594   0.00
0.00000000  0.00000000  0.43209878   0.00
0.00000000  0.00000000  0.43827161   0.00
0.00000000  0.00000000  0.44444445   0.00
0.00000000  0.00000000  0.45061728   0.00
0.00000000  0.00000000  0.45679012   0.00
0.00000000  0.00000000  0.46296296   0.00
0.00000000  0.00000000  0.46913582   0.00
0.00000000  0.00000000  0.47530866   0.00
0.00000000  0.00000000  0.48148149   0.00
0.00000000  0.00000000  0.48765433   0.00
0.00000000  0.00000000  0.49382716   0.00
0.00000000  0.00000000  0.50000000   0.00
0.00000000  0.00500000  0.50000000   0.00
0.00000000  0.01000000  0.50000000   0.00
0.00000000  0.01500000  0.50000000   0.00
0.00000000  0.02000000  0.50000000   0.00
0.00000000  0.02500000  0.50000000   0.00
0.00000000  0.03000000  0.50000000   0.00
0.00000000  0.03500000  0.50000000   0.00
0.00000000  0.04000000  0.50000000   0.00
0.00000000  0.04500000  0.50000000   0.00
0.00000000  0.05000000  0.50000000   0.00
0.00000000  0.05500000  0.50000000   0.00
0.00000000  0.06000000  0.50000000   0.00
0.00000000  0.06500000  0.50000000   0.00
0.00000000  0.07000000  0.50000000   0.00
0.00000000  0.07500000  0.50000000   0.00
0.00000000  0.08000000  0.50000000   0.00
0.00000000  0.08500000  0.50000000   0.00
0.00000000  0.09000000  0.50000000   0.00
0.00000000  0.09500000  0.50000000   0.00
0.00000000  0.09999999  0.50000000   0.00
0.00000000  0.10500000  0.50000000   0.00
0.00000000  0.11000000  0.50000000   0.00
0.00000000  0.11499999  0.50000000   0.00
0.00000000  0.12000000  0.50000000   0.00
0.00000000  0.12500000  0.50000000   0.00
0.00000000  0.13000000  0.50000000   0.00
0.00000000  0.13499999  0.50000000   0.00
0.00000000  0.14000000  0.50000000   0.00
0.00000000  0.14500000  0.50000000   0.00
0.00000000  0.14999999  0.50000000   0.00
0.00000000  0.15500000  0.50000000   0.00
0.00000000  0.16000000  0.50000000   0.00
0.00000000  0.16499999  0.50000000   0.00
0.00000000  0.17000000  0.50000000   0.00
0.00000000  0.17500000  0.50000000   0.00
0.00000000  0.17999999  0.50000000   0.00
0.00000000  0.18500000  0.50000000   0.00
0.00000000  0.19000000  0.50000000   0.00
0.00000000  0.19499999  0.50000000   0.00
0.00000000  0.19999999  0.50000000   0.00
0.00000000  0.20500000  0.50000000   0.00
0.00000000  0.20999999  0.50000000   0.00
0.00000000  0.21499999  0.50000000   0.00
0.00000000  0.22000000  0.50000000   0.00
0.00000000  0.22499999  0.50000000   0.00
0.00000000  0.22999999  0.50000000   0.00
0.00000000  0.23500000  0.50000000   0.00
0.00000000  0.23999999  0.50000000   0.00
0.00000000  0.24499999  0.50000000   0.00
0.00000000  0.25000000  0.50000000   0.00
0.00000000  0.25500000  0.50000000   0.00
0.00000000  0.25999999  0.50000000   0.00
0.00000000  0.26499999  0.50000000   0.00
0.00000000  0.26999998  0.50000000   0.00
0.00000000  0.27500001  0.50000000   0.00
0.00000000  0.28000000  0.50000000   0.00
0.00000000  0.28500000  0.50000000   0.00
0.00000000  0.28999999  0.50000000   0.00
0.00000000  0.29499999  0.50000000   0.00
0.00000000  0.29999998  0.50000000   0.00
0.00000000  0.30500001  0.50000000   0.00
0.00000000  0.31000000  0.50000000   0.00
0.00000000  0.31500000  0.50000000   0.00
0.00000000  0.31999999  0.50000000   0.00
0.00000000  0.32499999  0.50000000   0.00
0.00000000  0.32999998  0.50000000   0.00
0.00000000  0.33499998  0.50000000   0.00
0.00000000  0.34000000  0.50000000   0.00
0.00000000  0.34500000  0.50000000   0.00
0.00000000  0.34999999  0.50000000   0.00
0.00000000  0.35499999  0.50000000   0.00
0.00000000  0.35999998  0.50000000   0.00
0.00000000  0.36499998  0.50000000   0.00
0.00000000  0.37000000  0.50000000   0.00
0.00000000  0.37500000  0.50000000   0.00
0.00000000  0.38000000  0.50000000   0.00
0.00000000  0.38499999  0.50000000   0.00
0.00000000  0.38999999  0.50000000   0.00
0.00000000  0.39499998  0.50000000   0.00
0.00000000  0.39999998  0.50000000   0.00
0.00000000  0.40500000  0.50000000   0.00
0.00000000  0.41000000  0.50000000   0.00
0.00000000  0.41499999  0.50000000   0.00
0.00000000  0.41999999  0.50000000   0.00
0.00000000  0.42499998  0.50000000   0.00
0.00000000  0.42999998  0.50000000   0.00
0.00000000  0.43500000  0.50000000   0.00
0.00000000  0.44000000  0.50000000   0.00
0.00000000  0.44499999  0.50000000   0.00
0.00000000  0.44999999  0.50000000   0.00
0.00000000  0.45499998  0.50000000   0.00
0.00000000  0.45999998  0.50000000   0.00
0.00000000  0.46500000  0.50000000   0.00
0.00000000  0.47000000  0.50000000   0.00
0.00000000  0.47499999  0.50000000   0.00
0.00000000  0.47999999  0.50000000   0.00
0.00000000  0.48499998  0.50000000   0.00
0.00000000  0.48999998  0.50000000   0.00
0.00000000  0.49499997  0.50000000   0.00
0.00000000  0.50000000  0.50000000   0.00
0.00500000  0.50000000  0.50000000   0.00
0.01000000  0.50000000  0.50000000   0.00
0.01500000  0.50000000  0.50000000   0.00
0.02000000  0.50000000  0.50000000   0.00
0.02500000  0.50000000  0.50000000   0.00
0.03000000  0.50000000  0.50000000   0.00
0.03500000  0.50000000  0.50000000   0.00
0.04000000  0.50000000  0.50000000   0.00
0.04500000  0.50000000  0.50000000   0.00
0.05000000  0.50000000  0.50000000   0.00
0.05500000  0.50000000  0.50000000   0.00
0.06000000  0.50000000  0.50000000   0.00
0.06500000  0.50000000  0.50000000   0.00
0.07000000  0.50000000  0.50000000   0.00
0.07500000  0.50000000  0.50000000   0.00
0.08000000  0.50000000  0.50000000   0.00
0.08500000  0.50000000  0.50000000   0.00
0.09000000  0.50000000  0.50000000   0.00
0.09500000  0.50000000  0.50000000   0.00
0.09999999  0.50000000  0.50000000   0.00
0.10500000  0.50000000  0.50000000   0.00
0.11000000  0.50000000  0.50000000   0.00
0.11499999  0.50000000  0.50000000   0.00
0.12000000  0.50000000  0.50000000   0.00
0.12500000  0.50000000  0.50000000   0.00
0.13000000  0.50000000  0.50000000   0.00
0.13499999  0.50000000  0.50000000   0.00
0.14000000  0.50000000  0.50000000   0.00
0.14500000  0.50000000  0.50000000   0.00
0.14999999  0.50000000  0.50000000   0.00
0.15500000  0.50000000  0.50000000   0.00
0.16000000  0.50000000  0.50000000   0.00
0.16499999  0.50000000  0.50000000   0.00
0.17000000  0.50000000  0.50000000   0.00
0.17500000  0.50000000  0.50000000   0.00
0.17999999  0.50000000  0.50000000   0.00
0.18500000  0.50000000  0.50000000   0.00
0.19000000  0.50000000  0.50000000   0.00
0.19499999  0.50000000  0.50000000   0.00
0.19999999  0.50000000  0.50000000   0.00
0.20500000  0.50000000  0.50000000   0.00
0.20999999  0.50000000  0.50000000   0.00
0.21499999  0.50000000  0.50000000   0.00
0.22000000  0.50000000  0.50000000   0.00
0.22499999  0.50000000  0.50000000   0.00
0.22999999  0.50000000  0.50000000   0.00
0.23500000  0.50000000  0.50000000   0.00
0.23999999  0.50000000  0.50000000   0.00
0.24499999  0.50000000  0.50000000   0.00
0.25000000  0.50000000  0.50000000   0.00
0.25500000  0.50000000  0.50000000   0.00
0.25999999  0.50000000  0.50000000   0.00
0.26499999  0.50000000  0.50000000   0.00
0.26999998  0.50000000  0.50000000   0.00
0.27500001  0.50000000  0.50000000   0.00
0.28000000  0.50000000  0.50000000   0.00
0.28500000  0.50000000  0.50000000   0.00
0.28999999  0.50000000  0.50000000   0.00
0.29499999  0.50000000  0.50000000   0.00
0.29999998  0.50000000  0.50000000   0.00
0.30500001  0.50000000  0.50000000   0.00
0.31000000  0.50000000  0.50000000   0.00
0.31500000  0.50000000  0.50000000   0.00
0.31999999  0.50000000  0.50000000   0.00
0.32499999  0.50000000  0.50000000   0.00
0.32999998  0.50000000  0.50000000   0.00
0.33499998  0.50000000  0.50000000   0.00
0.34000000  0.50000000  0.50000000   0.00
0.34500000  0.50000000  0.50000000   0.00
0.34999999  0.50000000  0.50000000   0.00
0.35499999  0.50000000  0.50000000   0.00
0.35999998  0.50000000  0.50000000   0.00
0.36499998  0.50000000  0.50000000   0.00
0.37000000  0.50000000  0.50000000   0.00
0.37500000  0.50000000  0.50000000   0.00
0.38000000  0.50000000  0.50000000   0.00
0.38499999  0.50000000  0.50000000   0.00
0.38999999  0.50000000  0.50000000   0.00
0.39499998  0.50000000  0.50000000   0.00
0.39999998  0.50000000  0.50000000   0.00
0.40500000  0.50000000  0.50000000   0.00
0.41000000  0.50000000  0.50000000   0.00
0.41499999  0.50000000  0.50000000   0.00
0.41999999  0.50000000  0.50000000   0.00
0.42499998  0.50000000  0.50000000   0.00
0.42999998  0.50000000  0.50000000   0.00
0.43500000  0.50000000  0.50000000   0.00
0.44000000  0.50000000  0.50000000   0.00
0.44499999  0.50000000  0.50000000   0.00
0.44999999  0.50000000  0.50000000   0.00
0.45499998  0.50000000  0.50000000   0.00
0.45999998  0.50000000  0.50000000   0.00
0.46500000  0.50000000  0.50000000   0.00
0.47000000  0.50000000  0.50000000   0.00
0.47499999  0.50000000  0.50000000   0.00
0.47999999  0.50000000  0.50000000   0.00
0.48499998  0.50000000  0.50000000   0.00
0.48999998  0.50000000  0.50000000   0.00