C N H Pb I                              
   1.00000000000000     
    12.5768374277686394    0.0019159116494978    0.1381987933539664
     0.0011956322447466   12.4575380825249127   -0.0007464134870236
     0.1394107043392118    0.0000890449825412   12.7474206252920563
   C    N    H    Pb   I 
     8     8    48     8    24
Direct
  0.1977832000559658  0.2498461251249680  0.2285587041800170
  0.6962050647693303  0.2499704251036405  0.2292720045010768
  0.1962050647693303  0.7499704251036405  0.2292720045010768
  0.6977832000559658  0.7498461251249680  0.2285587041800170
  0.1962050647693303  0.2499704251036405  0.7292720045010768
  0.6977832000559658  0.2498461251249680  0.7285587041800170
  0.1977832000559658  0.7498461251249680  0.7285587041800170
  0.6962050647693303  0.7499704251036405  0.7292720045010768
  0.3118330595941927  0.2499637160777723  0.2588966118409388
  0.7972413782392422  0.2500435651553943  0.2888719811076683
  0.2972413782392422  0.7500435651553943  0.2888719811076683
  0.8118330595941927  0.7499637160777723  0.2588966118409388
  0.2972413782392422  0.2500435651553943  0.7888719811076683
  0.8118330595941927  0.2499637160777723  0.7588966118409388
  0.3118330595941927  0.7499637160777723  0.7588966118409388
  0.7972413782392422  0.7500435651553943  0.7888719811076683
  0.1937569869899036  0.2497592587675044  0.1416713351805043
  0.7163933474836028  0.2498829338805564  0.1441059167129239
  0.2163933474836028  0.7498829338805564  0.1441059167129239
  0.6937569869899036  0.7497592587675044  0.1416713351805043
  0.2163933474836028  0.2498829338805564  0.6441059167129239
  0.6937569869899036  0.2497592587675044  0.6416713351805043
  0.1937569869899036  0.7497592587675044  0.6416713351805043
  0.7163933474836028  0.7498829338805564  0.6441059167129239
  0.1584656513839278  0.3222006129162693  0.2606646130973544
  0.6502099619729194  0.3225037604644854  0.2503660253952802
  0.1502099619729194  0.8225037604644854  0.2503660253952802
  0.6584656513839278  0.8222006129162693  0.2606646130973544
  0.1502099619729194  0.3225037604644854  0.7503660253952802
  0.6584656513839278  0.3222006129162693  0.7606646130973544
  0.1584656513839278  0.8222006129162693  0.7606646130973544
  0.6502099619729194  0.8225037604644854  0.7503660253952802
  0.1586230697438040  0.1774823853950878  0.2607875358293512
  0.6502625975346632  0.1774697615552370  0.2505138775912741
  0.1502625975346632  0.6774697615552370  0.2505138775912741
  0.6586230697438040  0.6774823853950878  0.2607875358293512
  0.1502625975346632  0.1774697615552370  0.7505138775912741
  0.6586230697438040  0.1774823853950878  0.7607875358293512
  0.1586230697438040  0.6774823853950878  0.7607875358293512
  0.6502625975346632  0.6774697615552370  0.7505138775912741
  0.3525423149947642  0.3177565369643460  0.2302964161549141
  0.8437268397586450  0.3179920288500995  0.2712165658115637
  0.3437268397586450  0.8179920288500995  0.2712165658115637
  0.8525423149947642  0.8177565369643460  0.2302964161549141
  0.3437268397586450  0.3179920288500995  0.7712165658115637
  0.8525423149947642  0.3177565369643460  0.7302964161549141
  0.3525423149947642  0.8177565369643460  0.7302964161549141
  0.8437268397586450  0.8179920288500995  0.7712165658115637
  0.3526754618424306  0.1821865575225132  0.2303760314085892
  0.8437351386646483  0.1820232174201522  0.2714057682465381
  0.3437351386646483  0.6820232174201522  0.2714057682465381
  0.8526754618424306  0.6821865575225132  0.2303760314085892
  0.3437351386646483  0.1820232174201522  0.7714057682465381
  0.8526754618424306  0.1821865575225132  0.7303760314085892
  0.3526754618424306  0.6821865575225132  0.7303760314085892
  0.8437351386646483  0.6820232174201522  0.7714057682465381
  0.3229124306672659  0.2500113282071226  0.3410775692661474
  0.7834277152787621  0.2501757152318191  0.3701409200735171
  0.2834277152787621  0.7501757152318191  0.3701409200735171
  0.8229124306672659  0.7500113282071226  0.3410775692661474
  0.2834277152787621  0.2501757152318191  0.8701409200735171
  0.8229124306672659  0.2500113282071226  0.8410775692661474
  0.3229124306672659  0.7500113282071226  0.8410775692661474
  0.7834277152787621  0.7501757152318191  0.8701409200735171
  0.4724379898929740  0.4980401359294646  0.4888062615260935
  0.9724455620647490  0.5019394538004036  0.4888166325035144
  0.4724455620647490  0.0019394538004036  0.4888166325035144
  0.9724379898929740  0.9980401359294646  0.4888062615260935
  0.4724455620647490  0.5019394538004036  0.9888166325035144
  0.9724379898929740  0.4980401359294646  0.9888062615260935
  0.4724379898929740  0.9980401359294646  0.9888062615260935
  0.9724455620647490  0.0019394538004036  0.9888166325035144
  0.4546981545084634  0.5040269535905537  0.2375750484407888
  0.9547891941513384  0.4959551454340740  0.2375704354762007
  0.4547891941513384  0.9959551454340740  0.2375704354762007
  0.9546981545084634  0.0040269535905537  0.2375750484407888
  0.4547891941513384  0.4959551454340740  0.7375704354762007
  0.9546981545084634  0.5040269535905537  0.7375750484407888
  0.4546981545084634  0.0040269535905537  0.7375750484407888
  0.9547891941513384  0.9959551454340740  0.7375704354762007
  0.4795599446579786  0.2499718223967946  0.0104953121240783
  0.9197109344698120  0.2499861986942875  0.0131691233443405
  0.4197109344698120  0.7499861986942875  0.0131691233443405
  0.9795599446579786  0.7499718223967946  0.0104953121240783
  0.4197109344698120  0.2499861986942875  0.5131691233443405
  0.9795599446579786  0.2499718223967946  0.5104953121240783
  0.4795599446579786  0.7499718223967946  0.5104953121240783
  0.9197109344698120  0.7499861986942875  0.5131691233443405
  0.2161640224967698  0.5343240165191290  0.4612755400203739
  0.7161788543838057  0.4656708561984146  0.4612038636668387
  0.2161788543838057  0.9656708561984146  0.4612038636668387
  0.7161640224967698  0.0343240165191290  0.4612755400203739
  0.2161788543838057  0.4656708561984146  0.9612038636668387
  0.7161640224967698  0.5343240165191290  0.9612755400203739
  0.2161640224967698  0.0343240165191290  0.9612755400203739
  0.7161788543838057  0.9656708561984146  0.9612038636668387
 
  0.00000000E+00  0.00000000E+00  0.00000000E+00
  0.00000000E+00  0.00000000E+00  0.00000000E+00
  0.00000000E+00  0.00000000E+00  0.00000000E+00
  0.00000000E+00  0.00000000E+00  0.00000000E+00
  0.00000000E+00  0.00000000E+00  0.00000000E+00
  0.00000000E+00  0.00000000E+00  0.00000000E+00
  0.00000000E+00  0.00000000E+00  0.00000000E+00
  0.00000000E+00  0.00000000E+00  0.00000000E+00
  0.00000000E+00  0.00000000E+00  0.00000000E+00
  0.00000000E+00  0.00000000E+00  0.00000000E+00
  0.00000000E+00  0.00000000E+00  0.00000000E+00
  0.00000000E+00  0.00000000E+00  0.00000000E+00
  0.00000000E+00  0.00000000E+00  0.00000000E+00
  0.00000000E+00  0.00000000E+00  0.00000000E+00
  0.00000000E+00  0.00000000E+00  0.00000000E+00
  0.00000000E+00  0.00000000E+00  0.00000000E+00
  0.00000000E+00  0.00000000E+00  0.00000000E+00
  0.00000000E+00  0.00000000E+00  0.00000000E+00
  0.00000000E+00  0.00000000E+00  0.00000000E+00
  0.00000000E+00  0.00000000E+00  0.00000000E+00
  0.00000000E+00  0.00000000E+00  0.00000000E+00
  0.00000000E+00  0.00000000E+00  0.00000000E+00
  0.00000000E+00  0.00000000E+00  0.00000000E+00
  0.00000000E+00  0.00000000E+00  0.00000000E+00
  0.00000000E+00  0.00000000E+00  0.00000000E+00
  0.00000000E+00  0.00000000E+00  0.00000000E+00
  0.00000000E+00  0.00000000E+00  0.00000000E+00
  0.00000000E+00  0.00000000E+00  0.00000000E+00
  0.00000000E+00  0.00000000E+00  0.00000000E+00
  0.00000000E+00  0.00000000E+00  0.00000000E+00
  0.00000000E+00  0.00000000E+00  0.00000000E+00
  0.00000000E+00  0.00000000E+00  0.00000000E+00
  0.00000000E+00  0.00000000E+00  0.00000000E+00
  0.00000000E+00  0.00000000E+00  0.00000000E+00
  0.00000000E+00  0.00000000E+00  0.00000000E+00
  0.00000000E+00  0.00000000E+00  0.00000000E+00
  0.00000000E+00  0.00000000E+00  0.00000000E+00
  0.00000000E+00  0.00000000E+00  0.00000000E+00
  0.00000000E+00  0.00000000E+00  0.00000000E+00
  0.00000000E+00  0.00000000E+00  0.00000000E+00
  0.00000000E+00  0.00000000E+00  0.00000000E+00
  0.00000000E+00  0.00000000E+00  0.00000000E+00
  0.00000000E+00  0.00000000E+00  0.00000000E+00
  0.00000000E+00  0.00000000E+00  0.00000000E+00
  0.00000000E+00  0.00000000E+00  0.00000000E+00
  0.00000000E+00  0.00000000E+00  0.00000000E+00
  0.00000000E+00  0.00000000E+00  0.00000000E+00
  0.00000000E+00  0.00000000E+00  0.00000000E+00
  0.00000000E+00  0.00000000E+00  0.00000000E+00
  0.00000000E+00  0.00000000E+00  0.00000000E+00
  0.00000000E+00  0.00000000E+00  0.00000000E+00
  0.00000000E+00  0.00000000E+00  0.00000000E+00
  0.00000000E+00  0.00000000E+00  0.00000000E+00
  0.00000000E+00  0.00000000E+00  0.00000000E+00
  0.00000000E+00  0.00000000E+00  0.00000000E+00
  0.00000000E+00  0.00000000E+00  0.00000000E+00
  0.00000000E+00  0.00000000E+00  0.00000000E+00
  0.00000000E+00  0.00000000E+00  0.00000000E+00
  0.00000000E+00  0.00000000E+00  0.00000000E+00
  0.00000000E+00  0.00000000E+00  0.00000000E+00
  0.00000000E+00  0.00000000E+00  0.00000000E+00
  0.00000000E+00  0.00000000E+00  0.00000000E+00
  0.00000000E+00  0.00000000E+00  0.00000000E+00
  0.00000000E+00  0.00000000E+00  0.00000000E+00
  0.00000000E+00  0.00000000E+00  0.00000000E+00
  0.00000000E+00  0.00000000E+00  0.00000000E+00
  0.00000000E+00  0.00000000E+00  0.00000000E+00
  0.00000000E+00  0.00000000E+00  0.00000000E+00
  0.00000000E+00  0.00000000E+00  0.00000000E+00
  0.00000000E+00  0.00000000E+00  0.00000000E+00
  0.00000000E+00  0.00000000E+00  0.00000000E+00
  0.00000000E+00  0.00000000E+00  0.00000000E+00
  0.00000000E+00  0.00000000E+00  0.00000000E+00
  0.00000000E+00  0.00000000E+00  0.00000000E+00
  0.00000000E+00  0.00000000E+00  0.00000000E+00
  0.00000000E+00  0.00000000E+00  0.00000000E+00
  0.00000000E+00  0.00000000E+00  0.00000000E+00
  0.00000000E+00  0.00000000E+00  0.00000000E+00
  0.00000000E+00  0.00000000E+00  0.00000000E+00
  0.00000000E+00  0.00000000E+00  0.00000000E+00
  0.00000000E+00  0.00000000E+00  0.00000000E+00
  0.00000000E+00  0.00000000E+00  0.00000000E+00
  0.00000000E+00  0.00000000E+00  0.00000000E+00
  0.00000000E+00  0.00000000E+00  0.00000000E+00
  0.00000000E+00  0.00000000E+00  0.00000000E+00
  0.00000000E+00  0.00000000E+00  0.00000000E+00
  0.00000000E+00  0.00000000E+00  0.00000000E+00
  0.00000000E+00  0.00000000E+00  0.00000000E+00
  0.00000000E+00  0.00000000E+00  0.00000000E+00
  0.00000000E+00  0.00000000E+00  0.00000000E+00
  0.00000000E+00  0.00000000E+00  0.00000000E+00
  0.00000000E+00  0.00000000E+00  0.00000000E+00
  0.00000000E+00  0.00000000E+00  0.00000000E+00
  0.00000000E+00  0.00000000E+00  0.00000000E+00
  0.00000000E+00  0.00000000E+00  0.00000000E+00
  0.00000000E+00  0.00000000E+00  0.00000000E+00
