C N H Pb I
   1.0
    12.5768374277686394    0.0019159116494978    0.1381987933539664
     0.0011956322447466   12.4575380825249127   -0.0007464134870236
     0.1394107043392118    0.0000890449825412   12.7474206252920563
C   N   H  Pb   I
   8    8   48    8   24
Direct
  0.1977832000559650  0.2498461251249710  0.2285587041800176
  0.6962050647693309  0.2499704251036375  0.2292720045010762
  0.1962050647693309  0.7499704251036375  0.2292720045010762
  0.6977832000559651  0.7498461251249708  0.2285587041800176
  0.1962050647693309  0.2499704251036375  0.7292720045010761
  0.6977832000559652  0.2498461251249710  0.7285587041800177
  0.1977832000559650  0.7498461251249710  0.7285587041800177
  0.6962050647693308  0.7499704251036375  0.7292720045010761
  0.3118330595941912  0.2499637160777733  0.2588966118409371
  0.7972413782392436  0.2500435651553933  0.2888719811076701
  0.2972413782392437  0.7500435651553932  0.2888719811076700
  0.8118330595941912  0.7499637160777733  0.2588966118409370
  0.2972413782392437  0.2500435651553933  0.7888719811076700
  0.8118330595941911  0.2499637160777733  0.7588966118409372
  0.3118330595941912  0.7499637160777732  0.7588966118409372
  0.7972413782392435  0.7500435651553933  0.7888719811076701
  0.1937569869899066  0.2497592587675041  0.1416713351805078
  0.7163933474835995  0.2498829338805567  0.1441059167129205
  0.2163933474835997  0.7498829338805566  0.1441059167129205
  0.6937569869899065  0.7497592587675040  0.1416713351805078
  0.2163933474835997  0.2498829338805567  0.6441059167129205
  0.6937569869899065  0.2497592587675041  0.6416713351805079
  0.1937569869899066  0.7497592587675040  0.6416713351805079
  0.7163933474835996  0.7498829338805566  0.6441059167129205
  0.1584656513839250  0.3222006129162705  0.2606646130973556
  0.6502099619729219  0.3225037604644841  0.2503660253952791
  0.1502099619729220  0.8225037604644843  0.2503660253952791
  0.6584656513839251  0.8222006129162704  0.2606646130973555
  0.1502099619729220  0.3225037604644841  0.7503660253952791
  0.6584656513839249  0.3222006129162705  0.7606646130973556
  0.1584656513839251  0.8222006129162704  0.7606646130973556
  0.6502099619729218  0.8225037604644841  0.7503660253952792
  0.1586230697438065  0.1774823853950873  0.2607875358293489
  0.6502625975346606  0.1774697615552374  0.2505138775912764
  0.1502625975346607  0.6774697615552373  0.2505138775912764
  0.6586230697438062  0.6774823853950872  0.2607875358293490
  0.1502625975346606  0.1774697615552374  0.7505138775912764
  0.6586230697438064  0.1774823853950873  0.7607875358293489
  0.1586230697438065  0.6774823853950872  0.7607875358293489
  0.6502625975346604  0.6774697615552373  0.7505138775912764
  0.3525423149947618  0.3177565369643454  0.2302964161549171
  0.8437268397586472  0.3179920288501001  0.2712165658115608
  0.3437268397586474  0.8179920288500999  0.2712165658115608
  0.8525423149947617  0.8177565369643454  0.2302964161549171
  0.3437268397586474  0.3179920288501001  0.7712165658115607
  0.8525423149947615  0.3177565369643454  0.7302964161549171
  0.3525423149947619  0.8177565369643452  0.7302964161549171
  0.8437268397586472  0.8179920288501000  0.7712165658115607
  0.3526754618424291  0.1821865575225117  0.2303760314085892
  0.8437351386646496  0.1820232174201537  0.2714057682465381
  0.3437351386646498  0.6820232174201536  0.2714057682465381
  0.8526754618424289  0.6821865575225117  0.2303760314085892
  0.3437351386646498  0.1820232174201537  0.7714057682465379
  0.8526754618424289  0.1821865575225116  0.7303760314085892
  0.3526754618424291  0.6821865575225117  0.7303760314085892
  0.8437351386646497  0.6820232174201536  0.7714057682465379
  0.3229124306672638  0.2500113282071231  0.3410775692661469
  0.7834277152787641  0.2501757152318185  0.3701409200735176
  0.2834277152787641  0.7501757152318185  0.3701409200735176
  0.8229124306672637  0.7500113282071231  0.3410775692661469
  0.2834277152787641  0.2501757152318185  0.8701409200735176
  0.8229124306672638  0.2500113282071231  0.8410775692661469
  0.3229124306672638  0.7500113282071231  0.8410775692661469
  0.7834277152787641  0.7501757152318185  0.8701409200735176
  0.4724379898929720  0.4980401359294664  0.4888062615260904
  0.9724455620647510  0.5019394538004016  0.4888166325035174
  0.4724455620647510  0.0019394538004016  0.4888166325035175
  0.9724379898929717  0.9980401359294664  0.4888062615260904
  0.4724455620647509  0.5019394538004017  0.9888166325035176
  0.9724379898929718  0.4980401359294664  0.9888062615260905
  0.4724379898929719  0.9980401359294664  0.9888062615260905
  0.9724455620647507  0.0019394538004016  0.9888166325035176
  0.4546981545084600  0.5040269535905545  0.2375750484407905
  0.9547891941513416  0.4959551454340732  0.2375704354761990
  0.4547891941513417  0.9959551454340732  0.2375704354761990
  0.9546981545084600  0.0040269535905546  0.2375750484407905
  0.4547891941513417  0.4959551454340732  0.7375704354761989
  0.9546981545084599  0.5040269535905544  0.7375750484407906
  0.4546981545084600  0.0040269535905544  0.7375750484407906
  0.9547891941513417  0.9959551454340733  0.7375704354761989
  0.4795599446579776  0.2499718223967928  0.0104953121240802
  0.9197109344698127  0.2499861986942893  0.0131691233443386
  0.4197109344698128  0.7499861986942893  0.0131691233443386
  0.9795599446579775  0.7499718223967927  0.0104953121240802
  0.4197109344698128  0.2499861986942893  0.5131691233443386
  0.9795599446579777  0.2499718223967928  0.5104953121240801
  0.4795599446579776  0.7499718223967927  0.5104953121240801
  0.9197109344698127  0.7499861986942893  0.5131691233443386
  0.2161640224967670  0.5343240165191276  0.4612755400203735
  0.7161788543838082  0.4656708561984159  0.4612038636668392
  0.2161788543838084  0.9656708561984159  0.4612038636668392
  0.7161640224967669  0.0343240165191274  0.4612755400203735
  0.2161788543838084  0.4656708561984159  0.9612038636668391
  0.7161640224967669  0.5343240165191276  0.9612755400203735
  0.2161640224967670  0.0343240165191274  0.9612755400203736
  0.7161788543838083  0.9656708561984159  0.9612038636668391
