Automatically generated mesh SCF: 16 steps, 160, dim: 4.584*3, route:GX
    176
Reciprocal lattice
    0.00000000000000    0.00000000000000    0.00000000000000             1
    0.16666666666667    0.00000000000000    0.00000000000000             8
    0.33333333333333    0.00000000000000    0.00000000000000             8
    0.50000000000000    0.00000000000000    0.00000000000000             4
    0.16666666666667    0.16666666666667    0.00000000000000             6
    0.33333333333333    0.16666666666667    0.00000000000000            24
    0.50000000000000    0.16666666666667    0.00000000000000            24
   -0.33333333333333    0.16666666666667    0.00000000000000            24
   -0.16666666666667    0.16666666666667    0.00000000000000            12
    0.33333333333333    0.33333333333333    0.00000000000000             6
    0.50000000000000    0.33333333333333    0.00000000000000            24
   -0.33333333333333    0.33333333333333    0.00000000000000            12
    0.50000000000000    0.50000000000000    0.00000000000000             3
    0.50000000000000    0.33333333333333    0.16666666666667            24
   -0.33333333333333    0.33333333333333    0.16666666666667            24
   -0.33333333333333    0.50000000000000    0.16666666666667            12
0.00000000  0.00000000  0.00000000   0.00
0.00312500  0.00000000  0.00312500   0.00
0.00625000  0.00000000  0.00625000   0.00
0.00937500  0.00000000  0.00937500   0.00
0.01250000  0.00000000  0.01250000   0.00
0.01562500  0.00000000  0.01562500   0.00
0.01875000  0.00000000  0.01875000   0.00
0.02187500  0.00000000  0.02187500   0.00
0.02500000  0.00000000  0.02500000   0.00
0.02812500  0.00000000  0.02812500   0.00
0.03125000  0.00000000  0.03125000   0.00
0.03437500  0.00000000  0.03437500   0.00
0.03750000  0.00000000  0.03750000   0.00
0.04062500  0.00000000  0.04062500   0.00
0.04375000  0.00000000  0.04375000   0.00
0.04687500  0.00000000  0.04687500   0.00
0.05000000  0.00000000  0.05000000   0.00
0.05312500  0.00000000  0.05312500   0.00
0.05624999  0.00000000  0.05624999   0.00
0.05937500  0.00000000  0.05937500   0.00
0.06250000  0.00000000  0.06250000   0.00
0.06562500  0.00000000  0.06562500   0.00
0.06875000  0.00000000  0.06875000   0.00
0.07187500  0.00000000  0.07187500   0.00
0.07500000  0.00000000  0.07500000   0.00
0.07812499  0.00000000  0.07812499   0.00
0.08125000  0.00000000  0.08125000   0.00
0.08437499  0.00000000  0.08437499   0.00
0.08750000  0.00000000  0.08750000   0.00
0.09062500  0.00000000  0.09062500   0.00
0.09375000  0.00000000  0.09375000   0.00
0.09687500  0.00000000  0.09687500   0.00
0.09999999  0.00000000  0.09999999   0.00
0.10312500  0.00000000  0.10312500   0.00
0.10625000  0.00000000  0.10625000   0.00
0.10937499  0.00000000  0.10937499   0.00
0.11249999  0.00000000  0.11249999   0.00
0.11562499  0.00000000  0.11562499   0.00
0.11874999  0.00000000  0.11874999   0.00
0.12187499  0.00000000  0.12187499   0.00
0.12499999  0.00000000  0.12499999   0.00
0.12812500  0.00000000  0.12812500   0.00
0.13124999  0.00000000  0.13124999   0.00
0.13437499  0.00000000  0.13437499   0.00
0.13750000  0.00000000  0.13750000   0.00
0.14062500  0.00000000  0.14062500   0.00
0.14375000  0.00000000  0.14375000   0.00
0.14687499  0.00000000  0.14687499   0.00
0.14999999  0.00000000  0.14999999   0.00
0.15312499  0.00000000  0.15312499   0.00
0.15624999  0.00000000  0.15624999   0.00
0.15937500  0.00000000  0.15937500   0.00
0.16249999  0.00000000  0.16249999   0.00
0.16562499  0.00000000  0.16562499   0.00
0.16874999  0.00000000  0.16874999   0.00
0.17187499  0.00000000  0.17187499   0.00
0.17500000  0.00000000  0.17500000   0.00
0.17812499  0.00000000  0.17812499   0.00
0.18124999  0.00000000  0.18124999   0.00
0.18437499  0.00000000  0.18437499   0.00
0.18750000  0.00000000  0.18750000   0.00
0.19062500  0.00000000  0.19062500   0.00
0.19374999  0.00000000  0.19374999   0.00
0.19687499  0.00000000  0.19687499   0.00
0.19999999  0.00000000  0.19999999   0.00
0.20312499  0.00000000  0.20312499   0.00
0.20625000  0.00000000  0.20625000   0.00
0.20937499  0.00000000  0.20937499   0.00
0.21249999  0.00000000  0.21249999   0.00
0.21562499  0.00000000  0.21562499   0.00
0.21874999  0.00000000  0.21874999   0.00
0.22187498  0.00000000  0.22187498   0.00
0.22499998  0.00000000  0.22499998   0.00
0.22812499  0.00000000  0.22812499   0.00
0.23124999  0.00000000  0.23124999   0.00
0.23437499  0.00000000  0.23437499   0.00
0.23749998  0.00000000  0.23749998   0.00
0.24062498  0.00000000  0.24062498   0.00
0.24374998  0.00000000  0.24374998   0.00
0.24687497  0.00000000  0.24687497   0.00
0.24999999  0.00000000  0.24999999   0.00
0.25312501  0.00000000  0.25312501   0.00
0.25624999  0.00000000  0.25624999   0.00
0.25937501  0.00000000  0.25937501   0.00
0.26249999  0.00000000  0.26249999   0.00
0.26562500  0.00000000  0.26562500   0.00
0.26874998  0.00000000  0.26874998   0.00
0.27187499  0.00000000  0.27187499   0.00
0.27500001  0.00000000  0.27500001   0.00
0.27812499  0.00000000  0.27812499   0.00
0.28125000  0.00000000  0.28125000   0.00
0.28437498  0.00000000  0.28437498   0.00
0.28749999  0.00000000  0.28749999   0.00
0.29062498  0.00000000  0.29062498   0.00
0.29374999  0.00000000  0.29374999   0.00
0.29687500  0.00000000  0.29687500   0.00
0.29999998  0.00000000  0.29999998   0.00
0.30312499  0.00000000  0.30312499   0.00
0.30624998  0.00000000  0.30624998   0.00
0.30937499  0.00000000  0.30937499   0.00
0.31249997  0.00000000  0.31249997   0.00
0.31562498  0.00000000  0.31562498   0.00
0.31874999  0.00000000  0.31874999   0.00
0.32187498  0.00000000  0.32187498   0.00
0.32499999  0.00000000  0.32499999   0.00
0.32812497  0.00000000  0.32812497   0.00
0.33124998  0.00000000  0.33124998   0.00
0.33437496  0.00000000  0.33437496   0.00
0.33749998  0.00000000  0.33749998   0.00
0.34062499  0.00000000  0.34062499   0.00
0.34374997  0.00000000  0.34374997   0.00
0.34687498  0.00000000  0.34687498   0.00
0.34999999  0.00000000  0.34999999   0.00
0.35312501  0.00000000  0.35312501   0.00
0.35624999  0.00000000  0.35624999   0.00
0.35937497  0.00000000  0.35937497   0.00
0.36249998  0.00000000  0.36249998   0.00
0.36562496  0.00000000  0.36562496   0.00
0.36874998  0.00000000  0.36874998   0.00
0.37187496  0.00000000  0.37187496   0.00
0.37500000  0.00000000  0.37500000   0.00
0.37812498  0.00000000  0.37812498   0.00
0.38124999  0.00000000  0.38124999   0.00
0.38437498  0.00000000  0.38437498   0.00
0.38749999  0.00000000  0.38749999   0.00
0.39062497  0.00000000  0.39062497   0.00
0.39374998  0.00000000  0.39374998   0.00
0.39687496  0.00000000  0.39687496   0.00
0.39999998  0.00000000  0.39999998   0.00
0.40312502  0.00000000  0.40312502   0.00
0.40624997  0.00000000  0.40624997   0.00
0.40937501  0.00000000  0.40937501   0.00
0.41249999  0.00000000  0.41249999   0.00
0.41562501  0.00000000  0.41562501   0.00
0.41874999  0.00000000  0.41874999   0.00
0.42187500  0.00000000  0.42187500   0.00
0.42499998  0.00000000  0.42499998   0.00
0.42812499  0.00000000  0.42812499   0.00
0.43124998  0.00000000  0.43124998   0.00
0.43437499  0.00000000  0.43437499   0.00
0.43749997  0.00000000  0.43749997   0.00
0.44062498  0.00000000  0.44062498   0.00
0.44374996  0.00000000  0.44374996   0.00
0.44687501  0.00000000  0.44687501   0.00
0.44999996  0.00000000  0.44999996   0.00
0.45312500  0.00000000  0.45312500   0.00
0.45624998  0.00000000  0.45624998   0.00
0.45937499  0.00000000  0.45937499   0.00
0.46249998  0.00000000  0.46249998   0.00
0.46562499  0.00000000  0.46562499   0.00
0.46874997  0.00000000  0.46874997   0.00
0.47187498  0.00000000  0.47187498   0.00
0.47499996  0.00000000  0.47499996   0.00
0.47812498  0.00000000  0.47812498   0.00
0.48124996  0.00000000  0.48124996   0.00
0.48437497  0.00000000  0.48437497   0.00
0.48749995  0.00000000  0.48749995   0.00
0.49062499  0.00000000  0.49062499   0.00
0.49374995  0.00000000  0.49374995   0.00
0.49687499  0.00000000  0.49687499   0.00
0.49999997  0.00000000  0.49999997   0.00
