C N H Pb I
   1.0
    12.5768374277686394    0.0019159116494978    0.1381987933539664
     0.0011956322447466   12.4575380825249127   -0.0007464134870236
     0.1394107043392118    0.0000890449825412   12.7474206252920563
C   N   H  Pb   I
   8    8   48    8   24
Direct
  0.1976567318658325  0.2498560862439375  0.2286158664533596
  0.6963315329594635  0.2499604639846710  0.2292148422277343
  0.1963315329594635  0.7499604639846710  0.2292148422277342
  0.6976567318658324  0.7498560862439375  0.2286158664533596
  0.1963315329594635  0.2499604639846709  0.7292148422277341
  0.6976567318658325  0.2498560862439375  0.7286158664533596
  0.1976567318658325  0.7498560862439375  0.7286158664533596
  0.6963315329594634  0.7499604639846710  0.7292148422277341
  0.3106637152752472  0.2499701150021342  0.2612987700917693
  0.7984107225581877  0.2500371662310324  0.2864698228568378
  0.2984107225581876  0.7500371662310324  0.2864698228568378
  0.8106637152752472  0.7499701150021342  0.2612987700917693
  0.2984107225581876  0.2500371662310324  0.7864698228568378
  0.8106637152752472  0.2499701150021341  0.7612987700917694
  0.3106637152752472  0.7499701150021340  0.7612987700917693
  0.7984107225581873  0.7500371662310326  0.7864698228568378
  0.1955710136877891  0.2497691698111546  0.1418664370344122
  0.7145793207857173  0.2498730228369062  0.1439108148590161
  0.2145793207857173  0.7498730228369062  0.1439108148590161
  0.6955710136877890  0.7497691698111545  0.1418664370344122
  0.2145793207857173  0.2498730228369062  0.6439108148590160
  0.6955710136877890  0.2497691698111546  0.6418664370344124
  0.1955710136877891  0.7497691698111545  0.6418664370344123
  0.7145793207857173  0.7498730228369062  0.6439108148590160
  0.1578040591193401  0.3222249064746812  0.2598393075873441
  0.6508715542375070  0.3224794669060735  0.2511913309052906
  0.1508715542375070  0.8224794669060735  0.2511913309052906
  0.6578040591193400  0.8222249064746812  0.2598393075873441
  0.1508715542375070  0.3224794669060735  0.7511913309052907
  0.6578040591193398  0.3222249064746811  0.7598393075873440
  0.1578040591193401  0.8222249064746812  0.7598393075873440
  0.6508715542375070  0.8224794669060735  0.7511913309052907
  0.1579530804229296  0.1774813737491328  0.2599642281101608
  0.6509325868555375  0.1774707732011919  0.2513371853104645
  0.1509325868555376  0.6774707732011918  0.2513371853104645
  0.6579530804229293  0.6774813737491328  0.2599642281101608
  0.1509325868555376  0.1774707732011919  0.7513371853104647
  0.6579530804229294  0.1774813737491328  0.7599642281101606
  0.1579530804229296  0.6774813737491328  0.7599642281101606
  0.6509325868555373  0.6774707732011918  0.7513371853104646
  0.3518358627610961  0.3177754087510892  0.2335756643352585
  0.8444332919923130  0.3179731570633563  0.2679373176312194
  0.3444332919923130  0.8179731570633562  0.2679373176312194
  0.8518358627610960  0.8177754087510892  0.2335756643352585
  0.3444332919923131  0.3179731570633563  0.7679373176312192
  0.8518358627610959  0.3177754087510892  0.7335756643352587
  0.3518358627610961  0.8177754087510890  0.7335756643352587
  0.8444332919923129  0.8179731570633563  0.7679373176312192
  0.3519590045772823  0.1821734678163907  0.2336640616576156
  0.8444515959297962  0.1820363071262747  0.2681177379975116
  0.3444515959297966  0.6820363071262747  0.2681177379975116
  0.8519590045772822  0.6821734678163907  0.2336640616576156
  0.3444515959297966  0.1820363071262747  0.7681177379975117
  0.8519590045772821  0.1821734678163906  0.7336640616576156
  0.3519590045772823  0.6821734678163907  0.7336640616576154
  0.8444515959297964  0.6820363071262747  0.7681177379975117
  0.3197482149404033  0.2500245018112309  0.3434066404217853
  0.7865919310056245  0.2501625416277108  0.3678118489178792
  0.2865919310056246  0.7501625416277109  0.3678118489178792
  0.8197482149404032  0.7500245018112308  0.3434066404217853
  0.2865919310056246  0.2501625416277108  0.8678118489178792
  0.8197482149404033  0.2500245018112308  0.8434066404217853
  0.3197482149404033  0.7500245018112308  0.8434066404217853
  0.7865919310056244  0.7501625416277109  0.8678118489178792
  0.4724385967096805  0.4983526184384536  0.4888070926327491
  0.9724449552480422  0.5016269712914144  0.4888158013968587
  0.4724449552480424  0.0016269712914145  0.4888158013968588
  0.9724385967096804  0.9983526184384536  0.4888070926327491
  0.4724449552480424  0.5016269712914145  0.9888158013968589
  0.9724385967096805  0.4983526184384536  0.9888070926327491
  0.4724385967096805  0.9983526184384536  0.9888070926327491
  0.9724449552480422  0.0016269712914145  0.9888158013968590
  0.4547054502193937  0.5033800971535348  0.2375746787682485
  0.9547818984404078  0.4966020018710928  0.2375708051487410
  0.4547818984404081  0.9966020018710927  0.2375708051487410
  0.9547054502193937  0.0033800971535347  0.2375746787682485
  0.4547818984404080  0.4966020018710928  0.7375708051487408
  0.9547054502193936  0.5033800971535348  0.7375746787682487
  0.4547054502193936  0.0033800971535349  0.7375746787682486
  0.9547818984404080  0.9966020018710927  0.7375708051487408
  0.4747637804356673  0.2499729744807368  0.0107095853037284
  0.9245070986921230  0.2499850466103453  0.0129548501646904
  0.4245070986921230  0.7499850466103452  0.0129548501646904
  0.9747637804356672  0.7499729744807367  0.0107095853037284
  0.4245070986921231  0.2499850466103453  0.5129548501646904
  0.9747637804356674  0.2499729744807367  0.5107095853037283
  0.4747637804356674  0.7499729744807367  0.5107095853037283
  0.9245070986921229  0.7499850466103452  0.5129548501646904
  0.2161652110906260  0.5288223076313198  0.4612697960396239
  0.7161776657899492  0.4711725650862238  0.4612096076475888
  0.2161776657899494  0.9711725650862236  0.4612096076475888
  0.7161652110906259  0.0288223076313197  0.4612697960396239
  0.2161776657899494  0.4711725650862238  0.9612096076475889
  0.7161652110906259  0.5288223076313198  0.9612697960396237
  0.2161652110906260  0.0288223076313197  0.9612697960396239
  0.7161776657899493  0.9711725650862236  0.9612096076475889
