C N H Pb I
   1.0
    12.5768374277686394    0.0019159116494978    0.1381987933539664
     0.0011956322447466   12.4575380825249127   -0.0007464134870236
     0.1394107043392118    0.0000890449825412   12.7474206252920563
C   N   H  Pb   I
   8    8   48    8   24
Direct
  0.1975934977707662  0.2498610668034208  0.2286444475900306
  0.6963947670545296  0.2499554834251877  0.2291862610910632
  0.1963947670545297  0.7499554834251878  0.2291862610910632
  0.6975934977707662  0.7498610668034208  0.2286444475900306
  0.1963947670545297  0.2499554834251877  0.7291862610910631
  0.6975934977707664  0.2498610668034208  0.7286444475900307
  0.1975934977707662  0.7498610668034208  0.7286444475900307
  0.6963947670545295  0.7499554834251877  0.7291862610910632
  0.3100790431157752  0.2499733144643146  0.2624998492171855
  0.7989953947176596  0.2500339667688520  0.2852687437314217
  0.2989953947176596  0.7500339667688519  0.2852687437314217
  0.8100790431157752  0.7499733144643147  0.2624998492171854
  0.2989953947176597  0.2500339667688520  0.7852687437314216
  0.8100790431157751  0.2499733144643146  0.7624998492171855
  0.3100790431157752  0.7499733144643145  0.7624998492171855
  0.7989953947176595  0.7500339667688520  0.7852687437314216
  0.1964780270367303  0.2497741253329798  0.1419639879613644
  0.7136723074367759  0.2498680673150809  0.1438132639320639
  0.2136723074367761  0.7498680673150808  0.1438132639320638
  0.6964780270367300  0.7497741253329797  0.1419639879613644
  0.2136723074367761  0.2498680673150810  0.6438132639320638
  0.6964780270367301  0.2497741253329799  0.6419639879613644
  0.1964780270367303  0.7497741253329798  0.6419639879613644
  0.7136723074367760  0.7498680673150809  0.6438132639320640
  0.1574732629870476  0.3222370532538864  0.2594266548323383
  0.6512023503697995  0.3224673201268682  0.2516039836602963
  0.1512023503697995  0.8224673201268682  0.2516039836602963
  0.6574732629870476  0.8222370532538864  0.2594266548323384
  0.1512023503697995  0.3224673201268682  0.7516039836602963
  0.6574732629870473  0.3222370532538864  0.7594266548323384
  0.1574732629870476  0.8222370532538865  0.7594266548323384
  0.6512023503697993  0.8224673201268682  0.7516039836602963
  0.1576180857624911  0.1774808679261556  0.2595525742505667
  0.6512675815159761  0.1774712790241691  0.2517488391700586
  0.1512675815159761  0.6774712790241689  0.2517488391700586
  0.6576180857624909  0.6774808679261556  0.2595525742505667
  0.1512675815159760  0.1774712790241691  0.7517488391700585
  0.6576180857624910  0.1774808679261556  0.7595525742505668
  0.1576180857624911  0.6774808679261556  0.7595525742505667
  0.6512675815159760  0.6774712790241689  0.7517488391700586
  0.3514826366442632  0.3177848446444612  0.2352152884254293
  0.8447865181091458  0.3179637211699843  0.2662976935410486
  0.3447865181091460  0.8179637211699843  0.2662976935410486
  0.8514826366442632  0.8177848446444611  0.2352152884254293
  0.3447865181091460  0.3179637211699843  0.7662976935410486
  0.8514826366442629  0.3177848446444611  0.7352152884254293
  0.3514826366442632  0.8177848446444609  0.7352152884254293
  0.8447865181091458  0.8179637211699844  0.7662976935410486
  0.3516007759447089  0.1821669229633301  0.2353080767821288
  0.8448098245623697  0.1820428519793352  0.2664737228729984
  0.3448098245623700  0.6820428519793352  0.2664737228729984
  0.8516007759447087  0.6821669229633300  0.2353080767821288
  0.3448098245623700  0.1820428519793352  0.7664737228729983
  0.8516007759447087  0.1821669229633301  0.7353080767821288
  0.3516007759447089  0.6821669229633300  0.7353080767821288
  0.8448098245623699  0.6820428519793352  0.7664737228729984
  0.3181661070769731  0.2500310886132847  0.3445711759996045
  0.7881740388690548  0.2501559548256569  0.3666473133400600
  0.2881740388690548  0.7501559548256570  0.3666473133400600
  0.8181661070769730  0.7500310886132846  0.3445711759996045
  0.2881740388690548  0.2501559548256570  0.8666473133400600
  0.8181661070769731  0.2500310886132847  0.8445711759996045
  0.3181661070769731  0.7500310886132846  0.8445711759996046
  0.7881740388690548  0.7501559548256570  0.8666473133400601
  0.4724389001180347  0.4985088596929472  0.4888075081860786
  0.9724446518396881  0.5014707300369210  0.4888153858435293
  0.4724446518396881  0.0014707300369210  0.4888153858435293
  0.9724389001180345  0.9985088596929471  0.4888075081860785
  0.4724446518396881  0.5014707300369209  0.9888153858435295
  0.9724389001180346  0.4985088596929472  0.9888075081860787
  0.4724389001180347  0.9985088596929471  0.9888075081860787
  0.9724446518396880  0.0014707300369210  0.9888153858435295
  0.4547090980748606  0.5030566689350250  0.2375744939319775
  0.9547782505849410  0.4969254300896027  0.2375709899850120
  0.4547782505849411  0.9969254300896025  0.2375709899850120
  0.9547090980748605  0.0030566689350251  0.2375744939319775
  0.4547782505849411  0.4969254300896027  0.7375709899850120
  0.9547090980748605  0.5030566689350250  0.7375744939319775
  0.4547090980748606  0.0030566689350249  0.7375744939319775
  0.9547782505849411  0.9969254300896025  0.7375709899850120
  0.4723656983245121  0.2499735505227088  0.0108167218935525
  0.9269051808032782  0.2499844705683734  0.0128477135748663
  0.4269051808032781  0.7499844705683731  0.0128477135748663
  0.9723656983245120  0.7499735505227088  0.0108167218935525
  0.4269051808032783  0.2499844705683733  0.5128477135748662
  0.9723656983245121  0.2499735505227088  0.5108167218935525
  0.4723656983245123  0.7499735505227088  0.5108167218935525
  0.9269051808032782  0.7499844705683733  0.5128477135748662
  0.2161658053875555  0.5260714531874159  0.4612669240492490
  0.7161770714930199  0.4739234195301277  0.4612124796379636
  0.2161770714930199  0.9739234195301275  0.4612124796379636
  0.7161658053875554  0.0260714531874158  0.4612669240492490
  0.2161770714930199  0.4739234195301277  0.9612124796379636
  0.7161658053875555  0.5260714531874159  0.9612669240492490
  0.2161658053875555  0.0260714531874155  0.9612669240492492
  0.7161770714930199  0.9739234195301276  0.9612124796379636
