C N H Pb I
   1.0
    12.5768374277686394    0.0019159116494978    0.1381987933539664
     0.0011956322447466   12.4575380825249127   -0.0007464134870236
     0.1394107043392118    0.0000890449825412   12.7474206252920563
C   N   H  Pb   I
   8    8   48    8   24
Direct
  0.2041547812311776  0.2499381338050015  0.2177628162878024
  0.6898334835941184  0.2498784164236070  0.2400678923932915
  0.1898334835941184  0.7498784164236070  0.2400678923932914
  0.7041547812311775  0.7499381338050015  0.2177628162878024
  0.2041547812311776  0.2499381338050015  0.7177628162878024
  0.6898334835941183  0.2498784164236070  0.7400678923932915
  0.1898334835941184  0.7498784164236070  0.7400678923932915
  0.7041547812311776  0.7499381338050015  0.7177628162878024
  0.3065077633127086  0.2500262935248969  0.2745151211277390
  0.8025666745207263  0.2499809877082697  0.2732534718208681
  0.3025666745207262  0.7499809877082696  0.2732534718208681
  0.8065077633127086  0.7500262935248969  0.2745151211277390
  0.3065077633127086  0.2500262935248969  0.7745151211277389
  0.8025666745207261  0.2499809877082698  0.7732534718208682
  0.3025666745207263  0.7499809877082696  0.7732534718208682
  0.8065077633127085  0.7500262935248969  0.7745151211277390
  0.2219241545857001  0.2498201470668391  0.1324136367387045
  0.6882261798878061  0.2498220455812216  0.1533636151547237
  0.1882261798878063  0.7498220455812216  0.1533636151547237
  0.7219241545857000  0.7498201470668391  0.1324136367387046
  0.2219241545857001  0.2498201470668391  0.6324136367387044
  0.6882261798878062  0.2498220455812217  0.6533636151547239
  0.1882261798878063  0.7498220455812217  0.6533636151547239
  0.7219241545856999  0.7498201470668390  0.6324136367387044
  0.1588134563176114  0.3224635815971819  0.2398893860388845
  0.6498621570392356  0.3222407917835728  0.2711412524537502
  0.1498621570392356  0.8222407917835728  0.2711412524537502
  0.6588134563176115  0.8224635815971819  0.2398893860388845
  0.1588134563176114  0.3224635815971819  0.7398893860388845
  0.6498621570392354  0.3222407917835728  0.7711412524537502
  0.1498621570392356  0.8222407917835727  0.7711412524537502
  0.6588134563176115  0.8224635815971820  0.7398893860388844
  0.1588730246549456  0.1774589709914397  0.2400775707740956
  0.6500126426235215  0.1774931759588850  0.2712238426465297
  0.1500126426235216  0.6774931759588849  0.2712238426465297
  0.6588730246549453  0.6774589709914396  0.2400775707740956
  0.1588730246549455  0.1774589709914397  0.7400775707740957
  0.6500126426235214  0.1774931759588850  0.7712238426465295
  0.1500126426235216  0.6774931759588848  0.7712238426465295
  0.6588730246549453  0.6774589709914396  0.7400775707740956
  0.3523724232442272  0.3181130941213496  0.2560806274674486
  0.8438967315091817  0.3176354716930958  0.2454323544990293
  0.3438967315091819  0.8176354716930957  0.2454323544990293
  0.8523724232442271  0.8181130941213496  0.2560806274674486
  0.3523724232442273  0.3181130941213496  0.7560806274674485
  0.8438967315091817  0.3176354716930958  0.7454323544990293
  0.3438967315091819  0.8176354716930957  0.7454323544990293
  0.8523724232442270  0.8181130941213496  0.7560806274674485
  0.3523989960344329  0.1818763440947320  0.2562701039637753
  0.8440116044726459  0.1823334308479334  0.2455116956913519
  0.3440116044726459  0.6823334308479333  0.2455116956913519
  0.8523989960344327  0.6818763440947320  0.2562701039637754
  0.3523989960344329  0.1818763440947319  0.7562701039637754
  0.8440116044726459  0.1823334308479334  0.7455116956913519
  0.3440116044726460  0.6823334308479334  0.7455116956913519
  0.8523989960344326  0.6818763440947320  0.7562701039637754
  0.2951287191607006  0.2501554222802533  0.3559282698280829
  0.8112114267853273  0.2500316211586883  0.3552902195115816
  0.3112114267853274  0.7500316211586884  0.3552902195115815
  0.7951287191607005  0.7501554222802533  0.3559282698280829
  0.2951287191607007  0.2501554222802533  0.8559282698280829
  0.8112114267853274  0.2500316211586883  0.8552902195115816
  0.3112114267853273  0.7500316211586884  0.8552902195115816
  0.7951287191607005  0.7501554222802534  0.8559282698280830
  0.4724480533168922  0.5011574587666316  0.4888098905446407
  0.9724354986408306  0.4988221309632364  0.4888130034849671
  0.4724354986408307  0.9988221309632364  0.4888130034849671
  0.9724480533168920  0.0011574587666316  0.4888098905446408
  0.4724480533168921  0.5011574587666316  0.9888098905446409
  0.9724354986408307  0.4988221309632364  0.9888130034849671
  0.4724354986408307  0.9988221309632362  0.9888130034849671
  0.9724480533168920  0.0011574587666316  0.9888098905446410
  0.4547610742927542  0.5006127883680335  0.2375690415383732
  0.9547262743670474  0.4993693106565941  0.2375764423786163
  0.4547262743670475  0.9993693106565942  0.2375764423786163
  0.9547610742927540  0.0006127883680334  0.2375690415383732
  0.4547610742927541  0.5006127883680336  0.7375690415383731
  0.9547262743670474  0.4993693106565942  0.7375764423786163
  0.4547262743670476  0.9993693106565941  0.7375764423786163
  0.9547610742927540  0.0006127883680336  0.7375690415383732
  0.4721283820245398  0.2499745673203154  0.0076052730359974
  0.9271424971032505  0.2499834537707667  0.0160591624324214
  0.4271424971032506  0.7499834537707666  0.0160591624324214
  0.9721283820245398  0.7499745673203153  0.0076052730359974
  0.4721283820245398  0.2499745673203154  0.5076052730359975
  0.9271424971032505  0.2499834537707666  0.5160591624324213
  0.4271424971032506  0.7499834537707667  0.5160591624324213
  0.9721283820245398  0.7499745673203153  0.5076052730359975
  0.2161768679966675  0.4731506070914821  0.4612396978348210
  0.7161660088839078  0.5268442656260615  0.4612397058523917
  0.2161660088839079  0.0268442656260612  0.4612397058523916
  0.7161768679966675  0.9731506070914820  0.4612396978348210
  0.2161768679966674  0.4731506070914821  0.9612396978348211
  0.7161660088839078  0.5268442656260616  0.9612397058523915
  0.2161660088839079  0.0268442656260615  0.9612397058523916
  0.7161768679966674  0.9731506070914819  0.9612396978348211
