C N H Pb I
   1.0
    12.5768374277686394    0.0019159116494978    0.1381987933539664
     0.0011956322447466   12.4575380825249127   -0.0007464134870236
     0.1394107043392118    0.0000890449825412   12.7474206252920563
C   N   H  Pb   I
   8    8   48    8   24
Direct
  0.1978464341510313  0.2498411445654877  0.2285301230433466
  0.6961418306742646  0.2499754056631207  0.2293005856377472
  0.1961418306742647  0.7499754056631208  0.2293005856377472
  0.6978464341510313  0.7498411445654878  0.2285301230433466
  0.1961418306742647  0.2499754056631207  0.7293005856377472
  0.6978464341510314  0.2498411445654878  0.7285301230433467
  0.1978464341510313  0.7498411445654878  0.7285301230433466
  0.6961418306742645  0.7499754056631208  0.7293005856377471
  0.3124177317536632  0.2499605166155929  0.2576955327155209
  0.7966567060797717  0.2500467646175737  0.2900730602330862
  0.2966567060797716  0.7500467646175736  0.2900730602330862
  0.8124177317536632  0.7499605166155929  0.2576955327155210
  0.2966567060797716  0.2500467646175737  0.7900730602330861
  0.8124177317536631  0.2499605166155929  0.7576955327155210
  0.3124177317536632  0.7499605166155928  0.7576955327155209
  0.7966567060797713  0.7500467646175737  0.7900730602330861
  0.1928499736409655  0.2497543032456788  0.1415737842535556
  0.7173003608325409  0.2498878894023819  0.1442034676398727
  0.2173003608325410  0.7498878894023818  0.1442034676398727
  0.6928499736409653  0.7497543032456788  0.1415737842535556
  0.2173003608325409  0.2498878894023819  0.6442034676398727
  0.6928499736409652  0.2497543032456788  0.6415737842535557
  0.1928499736409654  0.7497543032456788  0.6415737842535557
  0.7173003608325408  0.7498878894023818  0.6442034676398727
  0.1587964475162175  0.3221884661370652  0.2610772658523612
  0.6498791658406294  0.3225159072436894  0.2499533726402734
  0.1498791658406295  0.8225159072436895  0.2499533726402734
  0.6587964475162175  0.8221884661370652  0.2610772658523612
  0.1498791658406295  0.3225159072436894  0.7499533726402735
  0.6587964475162174  0.3221884661370652  0.7610772658523611
  0.1587964475162176  0.8221884661370652  0.7610772658523611
  0.6498791658406294  0.8225159072436895  0.7499533726402735
  0.1589580644042450  0.1774828912180645  0.2611991896889430
  0.6499276028742220  0.1774692557322602  0.2501022237316823
  0.1499276028742222  0.6774692557322600  0.2501022237316823
  0.6589580644042449  0.6774828912180645  0.2611991896889431
  0.1499276028742222  0.1774692557322602  0.7501022237316822
  0.6589580644042449  0.1774828912180645  0.7611991896889431
  0.1589580644042449  0.6774828912180645  0.7611991896889430
  0.6499276028742220  0.6774692557322601  0.7501022237316823
  0.3528955411115947  0.3177471010709734  0.2286567920647464
  0.8433736136418143  0.3180014647434720  0.2728561899017315
  0.3433736136418145  0.8180014647434719  0.2728561899017315
  0.8528955411115946  0.8177471010709734  0.2286567920647464
  0.3433736136418145  0.3180014647434720  0.7728561899017315
  0.8528955411115944  0.3177471010709734  0.7286567920647463
  0.3528955411115947  0.8177471010709734  0.7286567920647463
  0.8433736136418143  0.8180014647434720  0.7728561899017315
  0.3530336904750025  0.1821931023755722  0.2287320162840760
  0.8433769100320760  0.1820166725670932  0.2730497833710512
  0.3433769100320764  0.6820166725670931  0.2730497833710512
  0.8530336904750024  0.6821931023755723  0.2287320162840760
  0.3433769100320764  0.1820166725670932  0.7730497833710512
  0.8530336904750024  0.1821931023755722  0.7287320162840760
  0.3530336904750025  0.6821931023755723  0.7287320162840760
  0.8433769100320762  0.6820166725670931  0.7730497833710513
  0.3244945385306942  0.2500047414050693  0.3399130336883276
  0.7818456074153338  0.2501823020338724  0.3713054556513368
  0.2818456074153338  0.7501823020338724  0.3713054556513368
  0.8244945385306939  0.7500047414050693  0.3399130336883276
  0.2818456074153339  0.2501823020338724  0.8713054556513368
  0.8244945385306941  0.2500047414050693  0.8399130336883277
  0.3244945385306941  0.7500047414050693  0.8399130336883277
  0.7818456074153337  0.7501823020338724  0.8713054556513368
  0.4724376864846177  0.4978838946749728  0.4888058459727611
  0.9724458654731051  0.5020956950548953  0.4888170480568468
  0.4724458654731052  0.0020956950548954  0.4888170480568468
  0.9724376864846175  0.9978838946749728  0.4888058459727611
  0.4724458654731052  0.5020956950548953  0.9888170480568470
  0.9724376864846175  0.4978838946749729  0.9888058459727611
  0.4724376864846176  0.9978838946749728  0.9888058459727611
  0.9724458654731051  0.0020956950548954  0.9888170480568470
  0.4546945066529932  0.5043503818090643  0.2375752332770615
  0.9547928420068084  0.4956317172155634  0.2375702506399280
  0.4547928420068086  0.9956317172155634  0.2375702506399280
  0.9546945066529929  0.0043503818090642  0.2375752332770615
  0.4547928420068085  0.4956317172155634  0.7375702506399280
  0.9546945066529929  0.5043503818090643  0.7375752332770615
  0.4546945066529932  0.0043503818090642  0.7375752332770615
  0.9547928420068085  0.9956317172155634  0.7375702506399280
  0.4819580267691327  0.2499712463548208  0.0103881755342561
  0.9173128523586577  0.2499867747362614  0.0132762599341627
  0.4173128523586576  0.7499867747362612  0.0132762599341627
  0.9819580267691325  0.7499712463548207  0.0103881755342561
  0.4173128523586576  0.2499867747362613  0.5132762599341627
  0.9819580267691326  0.2499712463548208  0.5103881755342561
  0.4819580267691327  0.7499712463548207  0.5103881755342562
  0.9173128523586578  0.7499867747362612  0.5132762599341626
  0.2161634281998375  0.5370748709630316  0.4612784120107483
  0.7161794486807377  0.4629200017545121  0.4612009916764643
  0.2161794486807379  0.9629200017545119  0.4612009916764643
  0.7161634281998374  0.0370748709630313  0.4612784120107483
  0.2161794486807379  0.4629200017545121  0.9612009916764643
  0.7161634281998374  0.5370748709630316  0.9612784120107483
  0.2161634281998375  0.0370748709630315  0.9612784120107483
  0.7161794486807378  0.9629200017545119  0.9612009916764644
