GaAs (Madelung Handbook, RT)                                    
    5.6536 
    0.5 0.5  0.0
    0.5 0.0 -0.5
    0.0 0.5 -0.5
       Ga  As
       1   1
Direct
  0.0000000000000000  0.0000000000000000  0.0000000000000000
  0.2500000000000000  0.2500000000000000  0.2500000000000000
