C N H Pb I                              
   1.00000000000000     
    12.5768374277686394    0.0019159116494978    0.1381987933539664
     0.0011956322447466   12.4575380825249127   -0.0007464134870236
     0.1394107043392118    0.0000890449825412   12.7474206252920563
   C    N    H    Pb   I 
     8     8    48     8    24
Direct
  0.1985379335617239  0.2497866794237780  0.2282175726835263
  0.6954503312635723  0.2500298708048305  0.2296131359975675
  0.1954503312635723  0.7500298708048305  0.2296131359975675
  0.6985379335617239  0.7497866794237780  0.2282175726835263
  0.1954503312635723  0.2500298708048305  0.7296131359975675
  0.6985379335617239  0.2497866794237780  0.7282175726835263
  0.1985379335617239  0.7497866794237780  0.7282175726835263
  0.6954503312635723  0.7500298708048305  0.7296131359975675
  0.3188114415600722  0.2499255287469211  0.2445610756389485
  0.7902629962733627  0.2500817524862384  0.3032075173096587
  0.2902629962733627  0.7500817524862384  0.3032075173096587
  0.8188114415600722  0.7499255287469282  0.2445610756389485
  0.2902629962733627  0.2500817524862384  0.8032075173096587
  0.8188114415600722  0.2499255287469211  0.7445610756389485
  0.3188114415600722  0.7499255287469211  0.7445610756389485
  0.7902629962733627  0.7500817524862384  0.8032075173096587
  0.1829312866473813  0.2497001119044384  0.1405070115191549
  0.7272190478261251  0.2499420807436223  0.1452702403742734
  0.2272190478261251  0.7499420807436223  0.1452702403742734
  0.6829312866473813  0.7497001119044384  0.1405070115191549
  0.2272190478261251  0.2499420807436223  0.6452702403742734
  0.6829312866473813  0.2497001119044384  0.6405070115191549
  0.1829312866473813  0.7497001119044384  0.6405070115191549
  0.7272190478261251  0.7499420807436223  0.6452702403742734
  0.1624138841269769  0.3220556344636805  0.2655898493977915
  0.6462617292298702  0.3226487389170742  0.2454407890948431
  0.1462617292298702  0.8226487389170742  0.2454407890948431
  0.6624138841269769  0.8220556344636805  0.2655898493977915
  0.1462617292298702  0.3226487389170742  0.7454407890948431
  0.6624138841269769  0.3220556344636805  0.7655898493977915
  0.1624138841269769  0.8220556344636805  0.7655898493977915
  0.6462617292298702  0.8226487389170742  0.7454407890948431
  0.1626214142163320  0.1774884226689366  0.2657008497668016
  0.6462642530621352  0.1774637242813881  0.2456005636538237
  0.1462642530621352  0.6774637242813881  0.2456005636538237
  0.6626214142163320  0.6774884226689366  0.2657008497668016
  0.1462642530621352  0.1774637242813881  0.7456005636538237
  0.6626214142163320  0.1774884226689366  0.7657008497668016
  0.1626214142163320  0.6774884226689366  0.7657008497668016
  0.6462642530621352  0.6774637242813881  0.7456005636538237
  0.3567582618696932  0.3176439144166707  0.2107266059693060
  0.8395108928837161  0.3181046513977748  0.2907863759971718
  0.3395108928837161  0.8181046513977748  0.2907863759971718
  0.8567582618696932  0.8176439144166707  0.2107266059693060
  0.3395108928837161  0.3181046513977748  0.7907863759971718
  0.8567582618696932  0.3176439144166707  0.7107266059693060
  0.3567582618696932  0.8176439144166707  0.7107266059693060
  0.8395108928837161  0.8181046513977748  0.7907863759971718
  0.3569511164784700  0.1822646739229796  0.2107538118267627
  0.8394594840286089  0.1819451010196858  0.2910279878283646
  0.3394594840286089  0.6819451010196858  0.2910279878283646
  0.8569511164784700  0.6822646739229796  0.2107538118267627
  0.3394594840286089  0.1819451010196858  0.7910279878283646
  0.8569511164784700  0.1822646739229796  0.7107538118267627
  0.3569511164784700  0.6822646739229796  0.7107538118267627
  0.8394594840286089  0.6819451010196858  0.7910279878283646
  0.3417957532325246  0.2499327111224403  0.3271782002894810
  0.7645443927135034  0.2502543323165014  0.3840402890501835
  0.2645443927135034  0.7502543323165014  0.3840402890501835
  0.8417957532325246  0.7499327111224403  0.3271782002894810
  0.2645443927135034  0.2502543323165014  0.8840402890501835
  0.8417957532325246  0.2499327111224403  0.8271782002894810
  0.3417957532325246  0.7499327111224403  0.8271782002894810
  0.7645443927135034  0.7502543323165014  0.8840402890501835
  0.4724343685483348  0.4961753111126441  0.4888013016698451
  0.9724491834093882  0.5038042786172241  0.4888215923597627
  0.4724491834093882  0.0038042786172241  0.4888215923597627
  0.9724343685483348  0.9961753111126441  0.4888013016698451
  0.4724491834093882  0.5038042786172241  0.9888215923597627
  0.9724343685483348  0.4961753111126441  0.9888013016698451
  0.4724343685483348  0.9961753111126441  0.9888013016698451
  0.9724491834093882  0.0038042786172241  0.9888215923597627
  0.4546546153585282  0.5078872462532615  0.2375772545627655
  0.9548327333012736  0.4920948527713662  0.2375682293542241
  0.4548327333012736  0.9920948527713662  0.2375682293542241
  0.9546546153585282  0.0078872462532615  0.2375772545627655
  0.4548327333012736  0.4920948527713662  0.7375682293542241
  0.9546546153585282  0.5078872462532615  0.7375772545627655
  0.4546546153585282  0.0078872462532615  0.7375772545627655
  0.9548327333012736  0.9920948527713662  0.7375682293542241
  0.5081823661057783  0.2499649470208354  0.0092165783341898
  0.8910885130220123  0.2499930740702467  0.0144478571342290
  0.3910885130220123  0.7499930740702467  0.0144478571342290
  0.0081823661057783  0.7499649470208354  0.0092165783341898
  0.3910885130220123  0.2499930740702467  0.5144478571342290
  0.0081823661057783  0.2499649470208354  0.5092165783341898
  0.5081823661057783  0.7499649470208354  0.5092165783341898
  0.8910885130220123  0.7499930740702467  0.5144478571342290
  0.2161569292379042  0.5671569686806350  0.4613098187961313
  0.7161859476426713  0.4328379040369086  0.4611695848910813
  0.2161859476426713  0.9328379040369086  0.4611695848910813
  0.7161569292379042  0.0671569686806350  0.4613098187961313
  0.2161859476426713  0.4328379040369086  0.9611695848910813
  0.7161569292379042  0.5671569686806350  0.9613098187961313
  0.2161569292379042  0.0671569686806350  0.9613098187961313
  0.7161859476426713  0.9328379040369086  0.9611695848910813
 
  0.00000000E+00  0.00000000E+00  0.00000000E+00
  0.00000000E+00  0.00000000E+00  0.00000000E+00
  0.00000000E+00  0.00000000E+00  0.00000000E+00
  0.00000000E+00  0.00000000E+00  0.00000000E+00
  0.00000000E+00  0.00000000E+00  0.00000000E+00
  0.00000000E+00  0.00000000E+00  0.00000000E+00
  0.00000000E+00  0.00000000E+00  0.00000000E+00
  0.00000000E+00  0.00000000E+00  0.00000000E+00
  0.00000000E+00  0.00000000E+00  0.00000000E+00
  0.00000000E+00  0.00000000E+00  0.00000000E+00
  0.00000000E+00  0.00000000E+00  0.00000000E+00
  0.00000000E+00  0.00000000E+00  0.00000000E+00
  0.00000000E+00  0.00000000E+00  0.00000000E+00
  0.00000000E+00  0.00000000E+00  0.00000000E+00
  0.00000000E+00  0.00000000E+00  0.00000000E+00
  0.00000000E+00  0.00000000E+00  0.00000000E+00
  0.00000000E+00  0.00000000E+00  0.00000000E+00
  0.00000000E+00  0.00000000E+00  0.00000000E+00
  0.00000000E+00  0.00000000E+00  0.00000000E+00
  0.00000000E+00  0.00000000E+00  0.00000000E+00
  0.00000000E+00  0.00000000E+00  0.00000000E+00
  0.00000000E+00  0.00000000E+00  0.00000000E+00
  0.00000000E+00  0.00000000E+00  0.00000000E+00
  0.00000000E+00  0.00000000E+00  0.00000000E+00
  0.00000000E+00  0.00000000E+00  0.00000000E+00
  0.00000000E+00  0.00000000E+00  0.00000000E+00
  0.00000000E+00  0.00000000E+00  0.00000000E+00
  0.00000000E+00  0.00000000E+00  0.00000000E+00
  0.00000000E+00  0.00000000E+00  0.00000000E+00
  0.00000000E+00  0.00000000E+00  0.00000000E+00
  0.00000000E+00  0.00000000E+00  0.00000000E+00
  0.00000000E+00  0.00000000E+00  0.00000000E+00
  0.00000000E+00  0.00000000E+00  0.00000000E+00
  0.00000000E+00  0.00000000E+00  0.00000000E+00
  0.00000000E+00  0.00000000E+00  0.00000000E+00
  0.00000000E+00  0.00000000E+00  0.00000000E+00
  0.00000000E+00  0.00000000E+00  0.00000000E+00
  0.00000000E+00  0.00000000E+00  0.00000000E+00
  0.00000000E+00  0.00000000E+00  0.00000000E+00
  0.00000000E+00  0.00000000E+00  0.00000000E+00
  0.00000000E+00  0.00000000E+00  0.00000000E+00
  0.00000000E+00  0.00000000E+00  0.00000000E+00
  0.00000000E+00  0.00000000E+00  0.00000000E+00
  0.00000000E+00  0.00000000E+00  0.00000000E+00
  0.00000000E+00  0.00000000E+00  0.00000000E+00
  0.00000000E+00  0.00000000E+00  0.00000000E+00
  0.00000000E+00  0.00000000E+00  0.00000000E+00
  0.00000000E+00  0.00000000E+00  0.00000000E+00
  0.00000000E+00  0.00000000E+00  0.00000000E+00
  0.00000000E+00  0.00000000E+00  0.00000000E+00
  0.00000000E+00  0.00000000E+00  0.00000000E+00
  0.00000000E+00  0.00000000E+00  0.00000000E+00
  0.00000000E+00  0.00000000E+00  0.00000000E+00
  0.00000000E+00  0.00000000E+00  0.00000000E+00
  0.00000000E+00  0.00000000E+00  0.00000000E+00
  0.00000000E+00  0.00000000E+00  0.00000000E+00
  0.00000000E+00  0.00000000E+00  0.00000000E+00
  0.00000000E+00  0.00000000E+00  0.00000000E+00
  0.00000000E+00  0.00000000E+00  0.00000000E+00
  0.00000000E+00  0.00000000E+00  0.00000000E+00
  0.00000000E+00  0.00000000E+00  0.00000000E+00
  0.00000000E+00  0.00000000E+00  0.00000000E+00
  0.00000000E+00  0.00000000E+00  0.00000000E+00
  0.00000000E+00  0.00000000E+00  0.00000000E+00
  0.00000000E+00  0.00000000E+00  0.00000000E+00
  0.00000000E+00  0.00000000E+00  0.00000000E+00
  0.00000000E+00  0.00000000E+00  0.00000000E+00
  0.00000000E+00  0.00000000E+00  0.00000000E+00
  0.00000000E+00  0.00000000E+00  0.00000000E+00
  0.00000000E+00  0.00000000E+00  0.00000000E+00
  0.00000000E+00  0.00000000E+00  0.00000000E+00
  0.00000000E+00  0.00000000E+00  0.00000000E+00
  0.00000000E+00  0.00000000E+00  0.00000000E+00
  0.00000000E+00  0.00000000E+00  0.00000000E+00
  0.00000000E+00  0.00000000E+00  0.00000000E+00
  0.00000000E+00  0.00000000E+00  0.00000000E+00
  0.00000000E+00  0.00000000E+00  0.00000000E+00
  0.00000000E+00  0.00000000E+00  0.00000000E+00
  0.00000000E+00  0.00000000E+00  0.00000000E+00
  0.00000000E+00  0.00000000E+00  0.00000000E+00
  0.00000000E+00  0.00000000E+00  0.00000000E+00
  0.00000000E+00  0.00000000E+00  0.00000000E+00
  0.00000000E+00  0.00000000E+00  0.00000000E+00
  0.00000000E+00  0.00000000E+00  0.00000000E+00
  0.00000000E+00  0.00000000E+00  0.00000000E+00
  0.00000000E+00  0.00000000E+00  0.00000000E+00
  0.00000000E+00  0.00000000E+00  0.00000000E+00
  0.00000000E+00  0.00000000E+00  0.00000000E+00
  0.00000000E+00  0.00000000E+00  0.00000000E+00
  0.00000000E+00  0.00000000E+00  0.00000000E+00
  0.00000000E+00  0.00000000E+00  0.00000000E+00
  0.00000000E+00  0.00000000E+00  0.00000000E+00
  0.00000000E+00  0.00000000E+00  0.00000000E+00
  0.00000000E+00  0.00000000E+00  0.00000000E+00
  0.00000000E+00  0.00000000E+00  0.00000000E+00
  0.00000000E+00  0.00000000E+00  0.00000000E+00
