C N H Pb I                              
   1.00000000000000     
    12.5768374277686394    0.0019159116494978    0.1381987933539664
     0.0011956322447466   12.4575380825249127   -0.0007464134870236
     0.1394107043392118    0.0000890449825412   12.7474206252920563
   C    N    H    Pb   I 
     8     8    48     8    24
Direct
  0.1978464341510318  0.2498411445654867  0.2285301230433490
  0.6961418306742644  0.2499754056631218  0.2293005856377448
  0.1961418306742644  0.7499754056631218  0.2293005856377448
  0.6978464341510318  0.7498411445654867  0.2285301230433490
  0.1961418306742644  0.2499754056631218  0.7293005856377448
  0.6978464341510318  0.2498411445654867  0.7285301230433490
  0.1978464341510318  0.7498411445654867  0.7285301230433490
  0.6961418306742644  0.7499754056631218  0.7293005856377448
  0.3124177317536621  0.2499605166155945  0.2576955327155233
  0.7966567060797729  0.2500467646175721  0.2900730602330839
  0.2966567060797729  0.7500467646175721  0.2900730602330839
  0.8124177317536621  0.7499605166155945  0.2576955327155233
  0.2966567060797729  0.2500467646175721  0.7900730602330839
  0.8124177317536621  0.2499605166155945  0.7576955327155233
  0.3124177317536621  0.7499605166155945  0.7576955327155233
  0.7966567060797729  0.7500467646175721  0.7900730602330839
  0.1928499736409677  0.2497543032456804  0.1415737842535520
  0.7173003608325388  0.2498878894023804  0.1442034676398762
  0.2173003608325388  0.7498878894023804  0.1442034676398762
  0.6928499736409677  0.7497543032456804  0.1415737842535520
  0.2173003608325388  0.2498878894023804  0.6442034676398691
  0.6928499736409677  0.2497543032456804  0.6415737842535592
  0.1928499736409677  0.7497543032456804  0.6415737842535592
  0.7173003608325388  0.7498878894023804  0.6442034676398691
  0.1587964475162167  0.3221884661370638  0.2610772658523643
  0.6498791658406304  0.3225159072436909  0.2499533726402703
  0.1498791658406304  0.8225159072436909  0.2499533726402703
  0.6587964475162167  0.8221884661370638  0.2610772658523643
  0.1498791658406304  0.3225159072436909  0.7499533726402703
  0.6587964475162167  0.3221884661370638  0.7610772658523643
  0.1587964475162167  0.8221884661370638  0.7610772658523643
  0.6498791658406304  0.8225159072436909  0.7499533726402703
  0.1589580644042456  0.1774828912180624  0.2611991896889450
  0.6499276028742216  0.1774692557322624  0.2501022237316803
  0.1499276028742216  0.6774692557322624  0.2501022237316803
  0.6589580644042456  0.6774828912180624  0.2611991896889450
  0.1499276028742216  0.1774692557322624  0.7501022237316803
  0.6589580644042456  0.1774828912180624  0.7611991896889450
  0.1589580644042456  0.6774828912180624  0.7611991896889450
  0.6499276028742216  0.6774692557322624  0.7501022237316803
  0.3528955411115930  0.3177471010709709  0.2286567920647471
  0.8433736136418162  0.3180014647434746  0.2728561899017308
  0.3433736136418162  0.8180014647434746  0.2728561899017308
  0.8528955411115930  0.8177471010709709  0.2286567920647471
  0.3433736136418162  0.3180014647434746  0.7728561899017308
  0.8528955411115930  0.3177471010709709  0.7286567920647471
  0.3528955411115930  0.8177471010709709  0.7286567920647471
  0.8433736136418162  0.8180014647434746  0.7728561899017308
  0.3530336904750015  0.1821931023755710  0.2287320162840771
  0.8433769100320774  0.1820166725670944  0.2730497833710501
  0.3433769100320774  0.6820166725670944  0.2730497833710501
  0.8530336904750015  0.6821931023755710  0.2287320162840771
  0.3433769100320774  0.1820166725670944  0.7730497833710501
  0.8530336904750015  0.1821931023755710  0.7287320162840771
  0.3530336904750015  0.6821931023755710  0.7287320162840771
  0.8433769100320774  0.6820166725670944  0.7730497833710501
  0.3244945385306934  0.2500047414050712  0.3399130336883260
  0.7818456074153346  0.2501823020338705  0.3713054556513384
  0.2818456074153346  0.7501823020338705  0.3713054556513384
  0.8244945385306934  0.7500047414050712  0.3399130336883260
  0.2818456074153346  0.2501823020338705  0.8713054556513384
  0.8244945385306934  0.2500047414050712  0.8399130336883260
  0.3244945385306934  0.7500047414050712  0.8399130336883260
  0.7818456074153346  0.7501823020338705  0.8713054556513384
  0.4724376864846178  0.4978838946749704  0.4888058459727631
  0.9724458654731052  0.5020956950548978  0.4888170480568448
  0.4724458654731052  0.0020956950548978  0.4888170480568448
  0.9724376864846178  0.9978838946749704  0.4888058459727631
  0.4724458654731052  0.5020956950548978  0.9888170480568448
  0.9724376864846178  0.4978838946749704  0.9888058459727631
  0.4724376864846178  0.9978838946749704  0.9888058459727631
  0.9724458654731052  0.0020956950548978  0.9888170480568448
  0.4546945066529915  0.5043503818090613  0.2375752332770631
  0.9547928420068104  0.4956317172155664  0.2375702506399264
  0.4547928420068104  0.9956317172155664  0.2375702506399264
  0.9546945066529915  0.0043503818090613  0.2375752332770631
  0.4547928420068104  0.4956317172155664  0.7375702506399264
  0.9546945066529915  0.5043503818090613  0.7375752332770631
  0.4546945066529915  0.0043503818090613  0.7375752332770631
  0.9547928420068104  0.9956317172155664  0.7375702506399264
  0.4819580267691350  0.2499712463548178  0.0103881755342528
  0.9173128523586556  0.2499867747362643  0.0132762599341660
  0.4173128523586556  0.7499867747362643  0.0132762599341660
  0.9819580267691350  0.7499712463548178  0.0103881755342528
  0.4173128523586556  0.2499867747362643  0.5132762599341660
  0.9819580267691350  0.2499712463548178  0.5103881755342528
  0.4819580267691350  0.7499712463548178  0.5103881755342528
  0.9173128523586556  0.7499867747362643  0.5132762599341660
  0.2161634281998346  0.5370748709630320  0.4612784120107492
  0.7161794486807409  0.4629200017545116  0.4612009916764634
  0.2161794486807409  0.9629200017545116  0.4612009916764634
  0.7161634281998346  0.0370748709630320  0.4612784120107492
  0.2161794486807409  0.4629200017545116  0.9612009916764634
  0.7161634281998346  0.5370748709630320  0.9612784120107492
  0.2161634281998346  0.0370748709630320  0.9612784120107492
  0.7161794486807409  0.9629200017545116  0.9612009916764634
 
  0.00000000E+00  0.00000000E+00  0.00000000E+00
  0.00000000E+00  0.00000000E+00  0.00000000E+00
  0.00000000E+00  0.00000000E+00  0.00000000E+00
  0.00000000E+00  0.00000000E+00  0.00000000E+00
  0.00000000E+00  0.00000000E+00  0.00000000E+00
  0.00000000E+00  0.00000000E+00  0.00000000E+00
  0.00000000E+00  0.00000000E+00  0.00000000E+00
  0.00000000E+00  0.00000000E+00  0.00000000E+00
  0.00000000E+00  0.00000000E+00  0.00000000E+00
  0.00000000E+00  0.00000000E+00  0.00000000E+00
  0.00000000E+00  0.00000000E+00  0.00000000E+00
  0.00000000E+00  0.00000000E+00  0.00000000E+00
  0.00000000E+00  0.00000000E+00  0.00000000E+00
  0.00000000E+00  0.00000000E+00  0.00000000E+00
  0.00000000E+00  0.00000000E+00  0.00000000E+00
  0.00000000E+00  0.00000000E+00  0.00000000E+00
  0.00000000E+00  0.00000000E+00  0.00000000E+00
  0.00000000E+00  0.00000000E+00  0.00000000E+00
  0.00000000E+00  0.00000000E+00  0.00000000E+00
  0.00000000E+00  0.00000000E+00  0.00000000E+00
  0.00000000E+00  0.00000000E+00  0.00000000E+00
  0.00000000E+00  0.00000000E+00  0.00000000E+00
  0.00000000E+00  0.00000000E+00  0.00000000E+00
  0.00000000E+00  0.00000000E+00  0.00000000E+00
  0.00000000E+00  0.00000000E+00  0.00000000E+00
  0.00000000E+00  0.00000000E+00  0.00000000E+00
  0.00000000E+00  0.00000000E+00  0.00000000E+00
  0.00000000E+00  0.00000000E+00  0.00000000E+00
  0.00000000E+00  0.00000000E+00  0.00000000E+00
  0.00000000E+00  0.00000000E+00  0.00000000E+00
  0.00000000E+00  0.00000000E+00  0.00000000E+00
  0.00000000E+00  0.00000000E+00  0.00000000E+00
  0.00000000E+00  0.00000000E+00  0.00000000E+00
  0.00000000E+00  0.00000000E+00  0.00000000E+00
  0.00000000E+00  0.00000000E+00  0.00000000E+00
  0.00000000E+00  0.00000000E+00  0.00000000E+00
  0.00000000E+00  0.00000000E+00  0.00000000E+00
  0.00000000E+00  0.00000000E+00  0.00000000E+00
  0.00000000E+00  0.00000000E+00  0.00000000E+00
  0.00000000E+00  0.00000000E+00  0.00000000E+00
  0.00000000E+00  0.00000000E+00  0.00000000E+00
  0.00000000E+00  0.00000000E+00  0.00000000E+00
  0.00000000E+00  0.00000000E+00  0.00000000E+00
  0.00000000E+00  0.00000000E+00  0.00000000E+00
  0.00000000E+00  0.00000000E+00  0.00000000E+00
  0.00000000E+00  0.00000000E+00  0.00000000E+00
  0.00000000E+00  0.00000000E+00  0.00000000E+00
  0.00000000E+00  0.00000000E+00  0.00000000E+00
  0.00000000E+00  0.00000000E+00  0.00000000E+00
  0.00000000E+00  0.00000000E+00  0.00000000E+00
  0.00000000E+00  0.00000000E+00  0.00000000E+00
  0.00000000E+00  0.00000000E+00  0.00000000E+00
  0.00000000E+00  0.00000000E+00  0.00000000E+00
  0.00000000E+00  0.00000000E+00  0.00000000E+00
  0.00000000E+00  0.00000000E+00  0.00000000E+00
  0.00000000E+00  0.00000000E+00  0.00000000E+00
  0.00000000E+00  0.00000000E+00  0.00000000E+00
  0.00000000E+00  0.00000000E+00  0.00000000E+00
  0.00000000E+00  0.00000000E+00  0.00000000E+00
  0.00000000E+00  0.00000000E+00  0.00000000E+00
  0.00000000E+00  0.00000000E+00  0.00000000E+00
  0.00000000E+00  0.00000000E+00  0.00000000E+00
  0.00000000E+00  0.00000000E+00  0.00000000E+00
  0.00000000E+00  0.00000000E+00  0.00000000E+00
  0.00000000E+00  0.00000000E+00  0.00000000E+00
  0.00000000E+00  0.00000000E+00  0.00000000E+00
  0.00000000E+00  0.00000000E+00  0.00000000E+00
  0.00000000E+00  0.00000000E+00  0.00000000E+00
  0.00000000E+00  0.00000000E+00  0.00000000E+00
  0.00000000E+00  0.00000000E+00  0.00000000E+00
  0.00000000E+00  0.00000000E+00  0.00000000E+00
  0.00000000E+00  0.00000000E+00  0.00000000E+00
  0.00000000E+00  0.00000000E+00  0.00000000E+00
  0.00000000E+00  0.00000000E+00  0.00000000E+00
  0.00000000E+00  0.00000000E+00  0.00000000E+00
  0.00000000E+00  0.00000000E+00  0.00000000E+00
  0.00000000E+00  0.00000000E+00  0.00000000E+00
  0.00000000E+00  0.00000000E+00  0.00000000E+00
  0.00000000E+00  0.00000000E+00  0.00000000E+00
  0.00000000E+00  0.00000000E+00  0.00000000E+00
  0.00000000E+00  0.00000000E+00  0.00000000E+00
  0.00000000E+00  0.00000000E+00  0.00000000E+00
  0.00000000E+00  0.00000000E+00  0.00000000E+00
  0.00000000E+00  0.00000000E+00  0.00000000E+00
  0.00000000E+00  0.00000000E+00  0.00000000E+00
  0.00000000E+00  0.00000000E+00  0.00000000E+00
  0.00000000E+00  0.00000000E+00  0.00000000E+00
  0.00000000E+00  0.00000000E+00  0.00000000E+00
  0.00000000E+00  0.00000000E+00  0.00000000E+00
  0.00000000E+00  0.00000000E+00  0.00000000E+00
  0.00000000E+00  0.00000000E+00  0.00000000E+00
  0.00000000E+00  0.00000000E+00  0.00000000E+00
  0.00000000E+00  0.00000000E+00  0.00000000E+00
  0.00000000E+00  0.00000000E+00  0.00000000E+00
  0.00000000E+00  0.00000000E+00  0.00000000E+00
  0.00000000E+00  0.00000000E+00  0.00000000E+00
