C N H Pb I
   1.0
    12.5768374277686394    0.0019159116494978    0.1381987933539664
     0.0011956322447466   12.4575380825249127   -0.0007464134870236
     0.1394107043392118    0.0000890449825412   12.7474206252920563
C   N   H  Pb   I
   8    8   48    8   24
Direct
  0.2057398252324817  0.2499447431695683  0.2152941484355157
  0.6882484395928143  0.2498718070590401  0.2425365602455782
  0.1882484395928143  0.7498718070590402  0.2425365602455782
  0.7057398252324817  0.7499447431695684  0.2152941484355157
  0.2057398252324817  0.2499447431695683  0.7152941484355156
  0.6882484395928143  0.2498718070590402  0.7425365602455781
  0.1882484395928143  0.7498718070590402  0.7425365602455781
  0.7057398252324817  0.7499447431695683  0.7152941484355156
  0.3069439527772843  0.2500313078549309  0.2746547571939870
  0.8021304850561506  0.2499759733782357  0.2731138357546201
  0.3021304850561505  0.7499759733782355  0.2731138357546201
  0.8069439527772841  0.7500313078549309  0.2746547571939870
  0.3069439527772844  0.2500313078549309  0.7746547571939869
  0.8021304850561505  0.2499759733782357  0.7731138357546202
  0.3021304850561505  0.7499759733782356  0.7731138357546201
  0.8069439527772841  0.7500313078549310  0.7746547571939869
  0.2256537588439609  0.2498199369442015  0.1300949475767787
  0.6844965756295452  0.2498222557038593  0.1556823043166496
  0.1844965756295455  0.7498222557038593  0.1556823043166496
  0.7256537588439608  0.7498199369442015  0.1300949475767787
  0.2256537588439609  0.2498199369442015  0.6300949475767786
  0.6844965756295454  0.2498222557038593  0.6556823043166496
  0.1844965756295455  0.7498222557038592  0.6556823043166496
  0.7256537588439608  0.7498199369442015  0.6300949475767788
  0.1598041628572446  0.3224882393947197  0.2364305106879345
  0.6488714504996023  0.3222161339860350  0.2746001278047002
  0.1488714504996024  0.8222161339860350  0.2746001278047002
  0.6598041628572446  0.8224882393947197  0.2364305106879345
  0.1598041628572446  0.3224882393947197  0.7364305106879346
  0.6488714504996023  0.3222161339860350  0.7746001278047001
  0.1488714504996024  0.8222161339860350  0.7746001278047001
  0.6598041628572446  0.8224882393947197  0.7364305106879345
  0.1598536687099808  0.1774551852745418  0.2366303823526609
  0.6490319985684864  0.1774969616757829  0.2746710310679644
  0.1490319985684865  0.6774969616757828  0.2746710310679644
  0.6598536687099806  0.6774551852745417  0.2366303823526610
  0.1598536687099808  0.1774551852745418  0.7366303823526609
  0.6490319985684864  0.1774969616757829  0.7746710310679644
  0.1490319985684864  0.6774969616757828  0.7746710310679644
  0.6598536687099806  0.6774551852745417  0.7366303823526609
  0.3533104907770724  0.3181659561303644  0.2572591506446479
  0.8429586639763366  0.3175826096840811  0.2442538313218300
  0.3429586639763367  0.8175826096840811  0.2442538313218301
  0.8533104907770722  0.8181659561303642  0.2572591506446478
  0.3533104907770724  0.3181659561303643  0.7572591506446478
  0.8429586639763365  0.3175826096840811  0.7442538313218302
  0.3429586639763367  0.8175826096840810  0.7442538313218302
  0.8533104907770722  0.8181659561303642  0.7572591506446478
  0.3533272907335946  0.1818257549208597  0.2574608166301792
  0.8430833097734841  0.1823840200218057  0.2443209830249480
  0.3430833097734843  0.6823840200218055  0.2443209830249480
  0.8533272907335944  0.6818257549208597  0.2574608166301792
  0.3533272907335947  0.1818257549208597  0.7574608166301792
  0.8430833097734841  0.1823840200218056  0.7443209830249480
  0.3430833097734843  0.6823840200218056  0.7443209830249480
  0.8533272907335945  0.6818257549208597  0.7574608166301793
  0.2933487268798909  0.2501691242666281  0.3559988875788155
  0.8129914190661371  0.2500179191723135  0.3552196017608489
  0.3129914190661371  0.7500179191723136  0.3552196017608489
  0.7933487268798907  0.7501691242666281  0.3559988875788155
  0.2933487268798908  0.2501691242666281  0.8559988875788155
  0.8129914190661370  0.2500179191723135  0.8552196017608491
  0.3129914190661371  0.7500179191723136  0.8552196017608491
  0.7933487268798907  0.7501691242666281  0.8559988875788154
  0.4724494428358089  0.5014159267783761  0.4888095460124960
  0.9724341091219137  0.4985636629514920  0.4888133480171118
  0.4724341091219140  0.9985636629514920  0.4888133480171119
  0.9724494428358087  0.0014159267783762  0.4888095460124960
  0.4724494428358089  0.5014159267783761  0.9888095460124960
  0.9724341091219139  0.4985636629514920  0.9888133480171120
  0.4724341091219140  0.9985636629514920  0.9888133480171120
  0.9724494428358087  0.0014159267783762  0.9888095460124962
  0.4547649258580861  0.5007504132493272  0.2375682224326100
  0.9547224228017156  0.4992316857753004  0.2375772614843795
  0.4547224228017157  0.9992316857753004  0.2375772614843796
  0.9547649258580859  0.0007504132493272  0.2375682224326100
  0.4547649258580861  0.5007504132493273  0.7375682224326099
  0.9547224228017156  0.4992316857753004  0.7375772614843795
  0.4547224228017157  0.9992316857753004  0.7375772614843795
  0.9547649258580859  0.0007504132493272  0.7375682224326100
  0.4771073028489582  0.2499735837910755  0.0066696185293264
  0.9221635762788321  0.2499844373000066  0.0169948169390924
  0.4221635762788321  0.7499844373000065  0.0169948169390924
  0.9771073028489582  0.7499735837910754  0.0066696185293264
  0.4771073028489583  0.2499735837910755  0.5066696185293263
  0.9221635762788321  0.2499844373000066  0.5169948169390924
  0.4221635762788321  0.7499844373000065  0.5169948169390923
  0.9771073028489583  0.7499735837910754  0.5066696185293265
  0.2161780698550448  0.4672079325151169  0.4612396969474571
  0.7161648070255305  0.5327869402024266  0.4612397067397555
  0.2161648070255306  0.0327869402024263  0.4612397067397555
  0.7161780698550447  0.9672079325151168  0.4612396969474572
  0.2161780698550448  0.4672079325151169  0.9612396969474571
  0.7161648070255304  0.5327869402024267  0.9612397067397556
  0.2161648070255306  0.0327869402024263  0.9612397067397557
  0.7161780698550447  0.9672079325151168  0.9612396969474570
