C N H Pb I                              
   1.00000000000000     
    12.5768374277686394    0.0019159116494978    0.1381987933539664
     0.0011956322447466   12.4575380825249127   -0.0007464134870236
     0.1394107043392118    0.0000890449825412   12.7474206252920563
   C    N    H    Pb   I 
     8     8    48     8    24
Direct
  0.2049473032318332  0.2499414384872836  0.2165284823616602
  0.6890409615934630  0.2498751117413249  0.2413022263194335
  0.1890409615934630  0.7498751117413249  0.2413022263194335
  0.7049473032318332  0.7499414384872836  0.2165284823616602
  0.2049473032318332  0.2499414384872836  0.7165284823616602
  0.6890409615934630  0.2498751117413249  0.7413022263194335
  0.1890409615934630  0.7498751117413249  0.7413022263194335
  0.7049473032318332  0.7499414384872836  0.7165284823616602
  0.3067258580449987  0.2500288006899112  0.2745849391608601
  0.8023485797884362  0.2499784805432554  0.2731836537877470
  0.3023485797884362  0.7499784805432554  0.2731836537877470
  0.8067258580449987  0.7500288006899112  0.2745849391608601
  0.3067258580449987  0.2500288006899112  0.7745849391608601
  0.8023485797884362  0.2499784805432554  0.7731836537877470
  0.3023485797884362  0.7499784805432554  0.7731836537877470
  0.8067258580449987  0.7500288006899112  0.7745849391608601
  0.2237889567148272  0.2498200420055170  0.1312542921577418
  0.6863613777586792  0.2498221506425438  0.1545229597356865
  0.1863613777586792  0.7498221506425438  0.1545229597356865
  0.7237889567148272  0.7498200420055170  0.1312542921577418
  0.2237889567148272  0.2498200420055170  0.6312542921577418
  0.6863613777586792  0.2498221506425438  0.6545229597356865
  0.1863613777586792  0.7498221506425438  0.6545229597356865
  0.7237889567148272  0.7498200420055170  0.6312542921577418
  0.1593088095874293  0.3224759104959531  0.2381599483634105
  0.6493668037694178  0.3222284628848016  0.2728706901292242
  0.1493668037694178  0.8222284628848016  0.2728706901292242
  0.6593088095874293  0.8224759104959531  0.2381599483634105
  0.1593088095874293  0.3224759104959531  0.7381599483634105
  0.6493668037694178  0.3222284628848016  0.7728706901292242
  0.1493668037694178  0.8222284628848016  0.7728706901292242
  0.6593088095874293  0.8224759104959531  0.7381599483634105
  0.1593633466824613  0.1774570781329885  0.2383539765633813
  0.6495223205960059  0.1774950688173362  0.2729474368572440
  0.1495223205960059  0.6774950688173362  0.2729474368572440
  0.6593633466824613  0.6774570781329885  0.2383539765633813
  0.1593633466824613  0.1774570781329885  0.7383539765633813
  0.6495223205960059  0.1774950688173362  0.7729474368572440
  0.1495223205960059  0.6774950688173362  0.7729474368572440
  0.6593633466824613  0.6774570781329885  0.7383539765633813
  0.3528414570106477  0.3181395251258579  0.2566698890560488
  0.8434276977427615  0.3176090406885876  0.2448430929104290
  0.3434276977427615  0.8176090406885876  0.2448430929104290
  0.8528414570106477  0.8181395251258579  0.2566698890560488
  0.3528414570106477  0.3181395251258579  0.7566698890560488
  0.8434276977427615  0.3176090406885876  0.7448430929104290
  0.3434276977427615  0.8176090406885876  0.7448430929104290
  0.8528414570106477  0.8181395251258579  0.7566698890560488
  0.3528631433840133  0.1818510495077987  0.2568654602969787
  0.8435474571230657  0.1823587254348666  0.2449163393581486
  0.3435474571230657  0.6823587254348666  0.2449163393581486
  0.8528631433840133  0.6818510495077987  0.2568654602969787
  0.3528631433840133  0.1818510495077987  0.7568654602969787
  0.8435474571230657  0.1823587254348666  0.7449163393581486
  0.3435474571230657  0.6823587254348666  0.7449163393581486
  0.8528631433840133  0.6818510495077987  0.7568654602969787
  0.2942387230202925  0.2501622732734390  0.3559635787034523
  0.8121014229257355  0.2500247701655027  0.3552549106362122
  0.3121014229257355  0.7500247701655027  0.3552549106362122
  0.7942387230202925  0.7501622732734390  0.3559635787034523
  0.2942387230202925  0.2501622732734390  0.8559635787034523
  0.8121014229257355  0.2500247701655027  0.8552549106362122
  0.3121014229257355  0.7500247701655027  0.8552549106362122
  0.7942387230202925  0.7501622732734390  0.8559635787034523
  0.4724487480763528  0.5012866927725028  0.4888097182785671
  0.9724348038813702  0.4986928969573654  0.4888131757510408
  0.4724348038813702  0.9986928969573654  0.4888131757510408
  0.9724487480763528  0.0012866927725028  0.4888097182785671
  0.4724487480763528  0.5012866927725028  0.9888097182785671
  0.9724348038813702  0.4986928969573654  0.9888131757510408
  0.4724348038813702  0.9986928969573654  0.9888131757510408
  0.9724487480763528  0.0012866927725028  0.9888097182785671
  0.4547630000754168  0.5006816008086830  0.2375686319854893
  0.9547243485843779  0.4993004982159448  0.2375768519315002
  0.4547243485843850  0.9993004982159448  0.2375768519315002
  0.9547630000754168  0.0006816008086830  0.2375686319854893
  0.4547630000754168  0.5006816008086830  0.7375686319854893
  0.9547243485843779  0.4993004982159448  0.7375768519315002
  0.4547243485843850  0.9993004982159448  0.7375768519315002
  0.9547630000754168  0.0006816008086830  0.7375686319854893
  0.4746178424367500  0.2499740755556985  0.0071374457826607
  0.9246530366910406  0.2499839455353836  0.0165269896857581
  0.4246530366910406  0.7499839455353836  0.0165269896857581
  0.9746178424367500  0.7499740755556985  0.0071374457826607
  0.4746178424367500  0.2499740755556985  0.5071374457826607
  0.9246530366910406  0.2499839455353836  0.5165269896857581
  0.4246530366910406  0.7499839455353836  0.5165269896857581
  0.9746178424367500  0.7499740755556985  0.5071374457826607
  0.2161774689258564  0.4701792698032961  0.4612396973911359
  0.7161654079547191  0.5298156029142476  0.4612397062960767
  0.2161654079547191  0.0298156029142405  0.4612397062960767
  0.7161774689258564  0.9701792698032961  0.4612396973911359
  0.2161774689258564  0.4701792698032961  0.9612396973911359
  0.7161654079547191  0.5298156029142405  0.9612397062960767
  0.2161654079547191  0.0298156029142405  0.9612397062960767
  0.7161774689258564  0.9701792698032961  0.9612396973911359
 
  0.00000000E+00  0.00000000E+00  0.00000000E+00
  0.00000000E+00  0.00000000E+00  0.00000000E+00
  0.00000000E+00  0.00000000E+00  0.00000000E+00
  0.00000000E+00  0.00000000E+00  0.00000000E+00
  0.00000000E+00  0.00000000E+00  0.00000000E+00
  0.00000000E+00  0.00000000E+00  0.00000000E+00
  0.00000000E+00  0.00000000E+00  0.00000000E+00
  0.00000000E+00  0.00000000E+00  0.00000000E+00
  0.00000000E+00  0.00000000E+00  0.00000000E+00
  0.00000000E+00  0.00000000E+00  0.00000000E+00
  0.00000000E+00  0.00000000E+00  0.00000000E+00
  0.00000000E+00  0.00000000E+00  0.00000000E+00
  0.00000000E+00  0.00000000E+00  0.00000000E+00
  0.00000000E+00  0.00000000E+00  0.00000000E+00
  0.00000000E+00  0.00000000E+00  0.00000000E+00
  0.00000000E+00  0.00000000E+00  0.00000000E+00
  0.00000000E+00  0.00000000E+00  0.00000000E+00
  0.00000000E+00  0.00000000E+00  0.00000000E+00
  0.00000000E+00  0.00000000E+00  0.00000000E+00
  0.00000000E+00  0.00000000E+00  0.00000000E+00
  0.00000000E+00  0.00000000E+00  0.00000000E+00
  0.00000000E+00  0.00000000E+00  0.00000000E+00
  0.00000000E+00  0.00000000E+00  0.00000000E+00
  0.00000000E+00  0.00000000E+00  0.00000000E+00
  0.00000000E+00  0.00000000E+00  0.00000000E+00
  0.00000000E+00  0.00000000E+00  0.00000000E+00
  0.00000000E+00  0.00000000E+00  0.00000000E+00
  0.00000000E+00  0.00000000E+00  0.00000000E+00
  0.00000000E+00  0.00000000E+00  0.00000000E+00
  0.00000000E+00  0.00000000E+00  0.00000000E+00
  0.00000000E+00  0.00000000E+00  0.00000000E+00
  0.00000000E+00  0.00000000E+00  0.00000000E+00
  0.00000000E+00  0.00000000E+00  0.00000000E+00
  0.00000000E+00  0.00000000E+00  0.00000000E+00
  0.00000000E+00  0.00000000E+00  0.00000000E+00
  0.00000000E+00  0.00000000E+00  0.00000000E+00
  0.00000000E+00  0.00000000E+00  0.00000000E+00
  0.00000000E+00  0.00000000E+00  0.00000000E+00
  0.00000000E+00  0.00000000E+00  0.00000000E+00
  0.00000000E+00  0.00000000E+00  0.00000000E+00
  0.00000000E+00  0.00000000E+00  0.00000000E+00
  0.00000000E+00  0.00000000E+00  0.00000000E+00
  0.00000000E+00  0.00000000E+00  0.00000000E+00
  0.00000000E+00  0.00000000E+00  0.00000000E+00
  0.00000000E+00  0.00000000E+00  0.00000000E+00
  0.00000000E+00  0.00000000E+00  0.00000000E+00
  0.00000000E+00  0.00000000E+00  0.00000000E+00
  0.00000000E+00  0.00000000E+00  0.00000000E+00
  0.00000000E+00  0.00000000E+00  0.00000000E+00
  0.00000000E+00  0.00000000E+00  0.00000000E+00
  0.00000000E+00  0.00000000E+00  0.00000000E+00
  0.00000000E+00  0.00000000E+00  0.00000000E+00
  0.00000000E+00  0.00000000E+00  0.00000000E+00
  0.00000000E+00  0.00000000E+00  0.00000000E+00
  0.00000000E+00  0.00000000E+00  0.00000000E+00
  0.00000000E+00  0.00000000E+00  0.00000000E+00
  0.00000000E+00  0.00000000E+00  0.00000000E+00
  0.00000000E+00  0.00000000E+00  0.00000000E+00
  0.00000000E+00  0.00000000E+00  0.00000000E+00
  0.00000000E+00  0.00000000E+00  0.00000000E+00
  0.00000000E+00  0.00000000E+00  0.00000000E+00
  0.00000000E+00  0.00000000E+00  0.00000000E+00
  0.00000000E+00  0.00000000E+00  0.00000000E+00
  0.00000000E+00  0.00000000E+00  0.00000000E+00
  0.00000000E+00  0.00000000E+00  0.00000000E+00
  0.00000000E+00  0.00000000E+00  0.00000000E+00
  0.00000000E+00  0.00000000E+00  0.00000000E+00
  0.00000000E+00  0.00000000E+00  0.00000000E+00
  0.00000000E+00  0.00000000E+00  0.00000000E+00
  0.00000000E+00  0.00000000E+00  0.00000000E+00
  0.00000000E+00  0.00000000E+00  0.00000000E+00
  0.00000000E+00  0.00000000E+00  0.00000000E+00
  0.00000000E+00  0.00000000E+00  0.00000000E+00
  0.00000000E+00  0.00000000E+00  0.00000000E+00
  0.00000000E+00  0.00000000E+00  0.00000000E+00
  0.00000000E+00  0.00000000E+00  0.00000000E+00
  0.00000000E+00  0.00000000E+00  0.00000000E+00
  0.00000000E+00  0.00000000E+00  0.00000000E+00
  0.00000000E+00  0.00000000E+00  0.00000000E+00
  0.00000000E+00  0.00000000E+00  0.00000000E+00
  0.00000000E+00  0.00000000E+00  0.00000000E+00
  0.00000000E+00  0.00000000E+00  0.00000000E+00
  0.00000000E+00  0.00000000E+00  0.00000000E+00
  0.00000000E+00  0.00000000E+00  0.00000000E+00
  0.00000000E+00  0.00000000E+00  0.00000000E+00
  0.00000000E+00  0.00000000E+00  0.00000000E+00
  0.00000000E+00  0.00000000E+00  0.00000000E+00
  0.00000000E+00  0.00000000E+00  0.00000000E+00
  0.00000000E+00  0.00000000E+00  0.00000000E+00
  0.00000000E+00  0.00000000E+00  0.00000000E+00
  0.00000000E+00  0.00000000E+00  0.00000000E+00
  0.00000000E+00  0.00000000E+00  0.00000000E+00
  0.00000000E+00  0.00000000E+00  0.00000000E+00
  0.00000000E+00  0.00000000E+00  0.00000000E+00
  0.00000000E+00  0.00000000E+00  0.00000000E+00
  0.00000000E+00  0.00000000E+00  0.00000000E+00
