C N H Pb I
   1.0
    12.5768374277686394    0.0019159116494978    0.1381987933539664
     0.0011956322447466   12.4575380825249127   -0.0007464134870236
     0.1394107043392118    0.0000890449825412   12.7474206252920563
C   N   H  Pb   I
   8    8   48    8   24
Direct
  0.1972085849178688  0.2498913840137441  0.2288184240950088
  0.6967796799074272  0.2499251662148643  0.2290122845860851
  0.1967796799074271  0.7499251662148643  0.2290122845860851
  0.6972085849178689  0.7498913840137441  0.2288184240950088
  0.1967796799074272  0.2499251662148643  0.7290122845860849
  0.6972085849178690  0.2498913840137442  0.7288184240950089
  0.1972085849178688  0.7498913840137441  0.7288184240950089
  0.6967796799074271  0.7499251662148644  0.7290122845860850
  0.3065200797325518  0.2499927899405480  0.2698109492216228
  0.8025543581008832  0.2500144912926186  0.2779576437269843
  0.3025543581008831  0.7500144912926185  0.2779576437269843
  0.8065200797325517  0.7499927899405480  0.2698109492216228
  0.3025543581008830  0.2500144912926186  0.7779576437269844
  0.8065200797325517  0.2499927899405480  0.7698109492216227
  0.3065200797325517  0.7499927899405479  0.7698109492216227
  0.8025543581008829  0.7500144912926187  0.7779576437269844
  0.2019991164963205  0.2498042901363403  0.1425577911233551
  0.7081512179771857  0.2498379025117205  0.1432194607700732
  0.2081512179771858  0.7498379025117204  0.1432194607700731
  0.7019991164963204  0.7498042901363402  0.1425577911233551
  0.2081512179771859  0.2498379025117205  0.6432194607700731
  0.7019991164963203  0.2498042901363403  0.6425577911233552
  0.2019991164963205  0.7498042901363402  0.6425577911233552
  0.7081512179771858  0.7498379025117204  0.6432194607700732
  0.1554596707489561  0.3223109920274631  0.2569147923787234
  0.6532159426078910  0.3223933813532915  0.2541158461139112
  0.1532159426078909  0.8223933813532917  0.2541158461139112
  0.6554596707489562  0.8223109920274631  0.2569147923787234
  0.1532159426078909  0.3223933813532915  0.7541158461139112
  0.6554596707489559  0.3223109920274631  0.7569147923787235
  0.1554596707489561  0.8223109920274631  0.7569147923787235
  0.6532159426078908  0.8223933813532917  0.7541158461139111
  0.1555789366243612  0.1774777889263688  0.2570467921825766
  0.6533067306541059  0.1774743580239559  0.2542546212380487
  0.1533067306541060  0.6774743580239559  0.2542546212380487
  0.6555789366243610  0.6774777889263687  0.2570467921825766
  0.1533067306541059  0.1774743580239559  0.7542546212380487
  0.6555789366243611  0.1774777889263687  0.7570467921825766
  0.1555789366243612  0.6774777889263687  0.7570467921825766
  0.6533067306541058  0.6774743580239558  0.7542546212380487
  0.3493325106369949  0.3178422819594668  0.2451958595961834
  0.8469366441164141  0.3179062838549786  0.2563171223702945
  0.3469366441164143  0.8179062838549784  0.2563171223702945
  0.8493325106369948  0.8178422819594670  0.2451958595961833
  0.3469366441164143  0.3179062838549786  0.7563171223702945
  0.8493325106369946  0.3178422819594668  0.7451958595961834
  0.3493325106369949  0.8178422819594667  0.7451958595961834
  0.8469366441164140  0.8179062838549785  0.7563171223702945
  0.3494201990769779  0.1821270837269075  0.2453153766591950
  0.8469904014301008  0.1820826912157579  0.2564664229959323
  0.3469904014301011  0.6820826912157579  0.2564664229959323
  0.8494201990769776  0.6821270837269074  0.2453153766591950
  0.3469904014301011  0.1820826912157579  0.7564664229959323
  0.8494201990769776  0.1821270837269074  0.7453153766591950
  0.3494201990769779  0.6821270837269074  0.7453153766591950
  0.8469904014301008  0.6820826912157578  0.7564664229959324
  0.3085356434692255  0.2500711831978179  0.3516598314328688
  0.7978045024768023  0.2501158602411238  0.3595586579067956
  0.2978045024768024  0.7501158602411239  0.3595586579067956
  0.8085356434692254  0.7500711831978178  0.3516598314328688
  0.2978045024768025  0.2501158602411238  0.8595586579067956
  0.8085356434692256  0.2500711831978179  0.8516598314328689
  0.3085356434692255  0.7500711831978178  0.8516598314328689
  0.7978045024768023  0.7501158602411239  0.8595586579067956
  0.4724407469978725  0.4994599172979367  0.4888100377046455
  0.9724428049598502  0.5005196724319314  0.4888128563249623
  0.4724428049598505  0.0005196724319314  0.4888128563249624
  0.9724407469978724  0.9994599172979367  0.4888100377046455
  0.4724428049598504  0.5005196724319314  0.9888128563249624
  0.9724407469978725  0.4994599172979368  0.9888100377046456
  0.4724407469978724  0.9994599172979367  0.9888100377046456
  0.9724428049598501  0.0005196724319314  0.9888128563249625
  0.4547313029700715  0.5010879259939943  0.2375733688133795
  0.9547560456897300  0.4988941730306333  0.2375721151036101
  0.4547560456897303  0.9988941730306333  0.2375721151036100
  0.9547313029700715  0.0010879259939944  0.2375733688133795
  0.4547560456897302  0.4988941730306333  0.7375721151036100
  0.9547313029700714  0.5010879259939943  0.7375733688133795
  0.4547313029700715  0.0010879259939942  0.7375733688133795
  0.9547560456897300  0.9988941730306333  0.7375721151036100
  0.4577683102236799  0.2499770569531969  0.0114688740338763
  0.9415025689041103  0.2499809641378852  0.0121955614345425
  0.4415025689041104  0.7499809641378851  0.0121955614345425
  0.9577683102236798  0.7499770569531968  0.0114688740338763
  0.4415025689041105  0.2499809641378851  0.5121955614345425
  0.9577683102236800  0.2499770569531969  0.5114688740338763
  0.4577683102236799  0.7499770569531968  0.5114688740338762
  0.9415025689041103  0.7499809641378852  0.5121955614345425
  0.2161694229379666  0.5093267013126678  0.4612494419297135
  0.7161734539426086  0.4906681714048757  0.4612299617574992
  0.2161734539426088  0.9906681714048755  0.4612299617574992
  0.7161694229379666  0.0093267013126677  0.4612494419297135
  0.2161734539426088  0.4906681714048757  0.9612299617574993
  0.7161694229379666  0.5093267013126679  0.9612494419297133
  0.2161694229379666  0.0093267013126677  0.9612494419297135
  0.7161734539426087  0.9906681714048756  0.9612299617574993
