C N H Pb I
   1.0
    12.5768374277686394    0.0019159116494978    0.1381987933539664
     0.0011956322447466   12.4575380825249127   -0.0007464134870236
     0.1394107043392118    0.0000890449825412   12.7474206252920563
   8    8   48    8   24
Direct
  0.1988466937915428  0.2497623602856733  0.2280780163521213
  0.6951415710337531  0.2500541899429352  0.2297526923289726
  0.1951415710337532  0.7500541899429352  0.2297526923289726
  0.6988466937915429  0.7497623602856732  0.2280780163521213
  0.1951415710337532  0.2500541899429351  0.7297526923289724
  0.6988466937915430  0.2497623602856734  0.7280780163521213
  0.1988466937915428  0.7497623602856733  0.7280780163521213
  0.6951415710337531  0.7500541899429352  0.7297526923289724
  0.3216662860887412  0.2499099063729929  0.2386964314718780
  0.7874081517446936  0.2500973748601737  0.3090721614767291
  0.2874081517446936  0.7500973748601736  0.3090721614767292
  0.8216662860887413  0.7499099063729930  0.2386964314718780
  0.2874081517446937  0.2500973748601737  0.8090721614767292
  0.8216662860887411  0.2499099063729929  0.7386964314718780
  0.3216662860887413  0.7499099063729929  0.7386964314718780
  0.7874081517446935  0.7500973748601737  0.8090721614767291
  0.1785025105295059  0.2496759150205190  0.1400306886336448
  0.7316478239440003  0.2499662776275418  0.1457465632597834
  0.2316478239440004  0.7499662776275418  0.1457465632597834
  0.6785025105295058  0.7496759150205189  0.1400306886336449
  0.2316478239440004  0.2499662776275418  0.6457465632597834
  0.6785025105295058  0.2496759150205190  0.6400306886336449
  0.1785025105295059  0.7496759150205189  0.6400306886336449
  0.7316478239440003  0.7499662776275418  0.6457465632597833
  0.1640290996166852  0.3219963240183378  0.2676047554280873
  0.6446465137401618  0.3227080493624168  0.2434258830645474
  0.1446465137401618  0.8227080493624168  0.2434258830645475
  0.6640290996166852  0.8219963240183379  0.2676047554280871
  0.1446465137401618  0.3227080493624168  0.7434258830645475
  0.6640290996166850  0.3219963240183378  0.7676047554280870
  0.1640290996166852  0.8219963240183379  0.7676047554280870
  0.6446465137401618  0.8227080493624168  0.7434258830645476
  0.1642571303317539  0.1774908925076897  0.2677108783780977
  0.6446285369467133  0.1774612544426350  0.2435905350425276
  0.1446285369467133  0.6774612544426351  0.2435905350425276
  0.6642571303317537  0.6774908925076895  0.2677108783780977
  0.1446285369467133  0.1774612544426350  0.7435905350425275
  0.6642571303317538  0.1774908925076897  0.7677108783780977
  0.1642571303317539  0.6774908925076896  0.7677108783780977
  0.6446285369467131  0.6774612544426349  0.7435905350425276
  0.3584829987682935  0.3175978407185641  0.2027206289665190
  0.8377861559851153  0.3181507250958814  0.2987923529999589
  0.3377861559851156  0.8181507250958813  0.2987923529999589
  0.8584829987682935  0.8175978407185640  0.2027206289665190
  0.3377861559851156  0.3181507250958814  0.7987923529999589
  0.8584829987682933  0.3175978407185641  0.7027206289665191
  0.3584829987682935  0.8175978407185639  0.7027206289665191
  0.8377861559851153  0.8181507250958814  0.7987923529999589
  0.3587002797234558  0.1822966312133111  0.2027263942266040
  0.8377103207836230  0.1819131437293543  0.2990554054285232
  0.3377103207836231  0.6819131437293543  0.2990554054285232
  0.8587002797234556  0.6822966312133110  0.2027263942266040
  0.3377103207836231  0.1819131437293543  0.7990554054285232
  0.8587002797234556  0.1822966312133110  0.7027263942266041
  0.3587002797234558  0.6822966312133110  0.7027263942266039
  0.8377103207836231  0.6819131437293544  0.7990554054285232
  0.3495208892844255  0.2499005490030340  0.3214919914134099
  0.7568192566616024  0.2502864944359076  0.3897264979262545
  0.2568192566616025  0.7502864944359076  0.3897264979262545
  0.8495208892844254  0.7499005490030340  0.3214919914134098
  0.2568192566616024  0.2502864944359076  0.8897264979262546
  0.8495208892844255  0.2499005490030340  0.8214919914134099
  0.3495208892844255  0.7499005490030340  0.8214919914134099
  0.7568192566616023  0.7502864944359076  0.8897264979262546
  0.4724328870622321  0.4954124143621875  0.4887992726008559
  0.9724506648954906  0.5045671753676806  0.4888236214287520
  0.4724506648954908  0.0045671753676806  0.4888236214287520
  0.9724328870622320  0.9954124143621875  0.4887992726008559
  0.4724506648954908  0.5045671753676805  0.9888236214287520
  0.9724328870622321  0.4954124143621876  0.9887992726008560
  0.4724328870622321  0.9954124143621875  0.9887992726008560
  0.9724506648954906  0.0045671753676806  0.9888236214287521
  0.4546368035642527  0.5094664856014521  0.2375781570836226
  0.9548505450955488  0.4905156134231755  0.2375673268333669
  0.4548505450955491  0.9905156134231754  0.2375673268333669
  0.9546368035642526  0.0094664856014521  0.2375781570836226
  0.4548505450955490  0.4905156134231755  0.7375673268333668
  0.9546368035642526  0.5094664856014522  0.7375781570836226
  0.4546368035642527  0.0094664856014519  0.7375781570836226
  0.9548505450955490  0.9905156134231754  0.7375673268333669
  0.5198917514141569  0.2499621343158927  0.0086934504541886
  0.8793791277136335  0.2499958867751894  0.0149709850142302
  0.3793791277136334  0.7499958867751894  0.0149709850142302
  0.0198917514141568  0.7499621343158925  0.0086934504541886
  0.3793791277136335  0.2499958867751893  0.5149709850142302
  0.0198917514141570  0.2499621343158927  0.5086934504541886
  0.5198917514141569  0.7499621343158925  0.5086934504541886
  0.8793791277136334  0.7499958867751894  0.5149709850142301
  0.2161540273974306  0.5805888751450092  0.4613238421866331
  0.7161888494831448  0.4194059975725344  0.4611555615005795
  0.2161888494831448  0.9194059975725342  0.4611555615005795
  0.7161540273974304  0.0805888751450090  0.4613238421866331
  0.2161888494831449  0.4194059975725344  0.9611555615005795
  0.7161540273974304  0.5805888751450092  0.9613238421866330
  0.2161540273974305  0.0805888751450092  0.9613238421866331
  0.7161888494831449  0.9194059975725342  0.9611555615005796
