C N H Pb I
   1.0
    12.5768374277686394    0.0019159116494978    0.1381987933539664
     0.0011956322447466   12.4575380825249127   -0.0007464134870236
     0.1394107043392118    0.0000890449825412   12.7474206252920563
C   N   H  Pb   I
   8    8   48    8   24
Direct
  0.1971013586652584  0.2498998295640242  0.2288668892177778
  0.6968869061600376  0.2499167206645843  0.2289638194633160
  0.1968869061600376  0.7499167206645844  0.2289638194633160
  0.6971013586652582  0.7498998295640241  0.2288668892177779
  0.1968869061600376  0.2499167206645842  0.7289638194633160
  0.6971013586652585  0.2498998295640242  0.7288668892177779
  0.1971013586652584  0.7498998295640241  0.7288668892177779
  0.6968869061600376  0.7499167206645844  0.7289638194633160
  0.3055286493246346  0.2499982152785656  0.2718476228479632
  0.8035457885088002  0.2500090659546010  0.2759209701006440
  0.3035457885088002  0.7500090659546009  0.2759209701006439
  0.8055286493246345  0.7499982152785656  0.2718476228479632
  0.3035457885088003  0.2500090659546010  0.7759209701006439
  0.8055286493246345  0.2499982152785656  0.7718476228479632
  0.3055286493246346  0.7499982152785655  0.7718476228479632
  0.8035457885088001  0.7500090659546010  0.7759209701006439
  0.2035371418665368  0.2498126932301853  0.1427232085350346
  0.7066131926069693  0.2498294994178755  0.1430540433583937
  0.2066131926069695  0.7498294994178755  0.1430540433583937
  0.7035371418665367  0.7498126932301852  0.1427232085350346
  0.2066131926069695  0.2498294994178755  0.6430540433583936
  0.7035371418665367  0.2498126932301853  0.6427232085350347
  0.2035371418665368  0.7498126932301852  0.6427232085350347
  0.7066131926069693  0.7498294994178755  0.6430540433583937
  0.1548987387136898  0.3223315893589202  0.2562150558125204
  0.6537768746431571  0.3223727840218345  0.2548155826801143
  0.1537768746431572  0.8223727840218344  0.2548155826801143
  0.6548987387136900  0.8223315893589203  0.2562150558125204
  0.1537768746431572  0.3223727840218345  0.7548155826801143
  0.6548987387136896  0.3223315893589201  0.7562150558125205
  0.1548987387136898  0.8223315893589203  0.7562150558125205
  0.6537768746431570  0.8223727840218344  0.7548155826801143
  0.1550108851317974  0.1774769312007655  0.2563487494464446
  0.6538747821466696  0.1774752157495591  0.2549526639741807
  0.1538747821466698  0.6774752157495590  0.2549526639741806
  0.6550108851317972  0.6774769312007655  0.2563487494464446
  0.1538747821466698  0.1774752157495591  0.7549526639741807
  0.6550108851317974  0.1774769312007655  0.7563487494464445
  0.1550108851317974  0.6774769312007655  0.7563487494464445
  0.6538747821466696  0.6774752157495590  0.7549526639741808
  0.3487335440068497  0.3178582824333448  0.2479761752897112
  0.8475356107465591  0.3178902833811006  0.2535368066767668
  0.3475356107465594  0.8178902833811006  0.2535368066767667
  0.8487335440068496  0.8178582824333448  0.2479761752897112
  0.3475356107465594  0.3178902833811007  0.7535368066767667
  0.8487335440068494  0.3178582824333449  0.7479761752897113
  0.3487335440068497  0.8178582824333447  0.7479761752897112
  0.8475356107465591  0.8178902833811008  0.7535368066767667
  0.3488127496652587  0.1821159855991201  0.2481031382433793
  0.8475978508418200  0.1820937893435453  0.2536786614117479
  0.3475978508418203  0.6820937893435454  0.2536786614117479
  0.8488127496652584  0.6821159855991200  0.2481031382433793
  0.3475978508418203  0.1820937893435453  0.7536786614117479
  0.8488127496652584  0.1821159855991200  0.7481031382433793
  0.3488127496652587  0.6821159855991200  0.7481031382433793
  0.8475978508418200  0.6820937893435454  0.7536786614117479
  0.3058528582211197  0.2500823524586444  0.3536345380513505
  0.8004872877249081  0.2501046909802973  0.3575839512883139
  0.3004872877249082  0.7501046909802973  0.3575839512883139
  0.8058528582211196  0.7500823524586444  0.3536345380513505
  0.3004872877249082  0.2501046909802973  0.8575839512883140
  0.8058528582211198  0.2500823524586444  0.8536345380513506
  0.3058528582211197  0.7500823524586444  0.8536345380513506
  0.8004872877249080  0.7501046909802974  0.8575839512883140
  0.4724412614883670  0.4997248560814354  0.4888107423597247
  0.9724422904693559  0.5002547336484328  0.4888121516698831
  0.4724422904693559  0.0002547336484326  0.4888121516698832
  0.9724412614883666  0.9997248560814354  0.4888107423597247
  0.4724422904693559  0.5002547336484326  0.9888121516698833
  0.9724412614883668  0.4997248560814354  0.9888107423597248
  0.4724412614883670  0.9997248560814355  0.9888107423597248
  0.9724422904693559  0.0002547336484326  0.9888121516698833
  0.4547374886499862  0.5005394877531540  0.2375730553859371
  0.9547498600098154  0.4994426112714735  0.2375724285310525
  0.4547498600098155  0.9994426112714734  0.2375724285310524
  0.9547374886499861  0.0005394877531539  0.2375730553859371
  0.4547498600098155  0.4994426112714735  0.7375724285310523
  0.9547374886499860  0.5005394877531542  0.7375730553859371
  0.4547374886499862  0.0005394877531542  0.7375730553859371
  0.9547498600098155  0.9994426112714734  0.7375724285310523
  0.4537018748937875  0.2499780337493690  0.0116505458840428
  0.9455690042340028  0.2499799873417131  0.0120138895843760
  0.4455690042340028  0.7499799873417131  0.0120138895843760
  0.9537018748937873  0.7499780337493690  0.0116505458840428
  0.4455690042340028  0.2499799873417131  0.5120138895843759
  0.9537018748937875  0.2499780337493690  0.5116505458840428
  0.4537018748937875  0.7499780337493690  0.5116505458840428
  0.9455690042340028  0.7499799873417130  0.5120138895843760
  0.2161704306891271  0.5046620688357198  0.4612445718866598
  0.7161724461914480  0.4953328038818238  0.4612348318005528
  0.2161724461914483  0.9953328038818237  0.4612348318005528
  0.7161704306891271  0.0046620688357195  0.4612445718866599
  0.2161724461914483  0.4953328038818238  0.9612348318005528
  0.7161704306891271  0.5046620688357198  0.9612445718866599
  0.2161704306891271  0.0046620688357197  0.9612445718866599
  0.7161724461914482  0.9953328038818237  0.9612348318005528
