Automatically generated mesh SCF: 16 steps, 476 , dim: 4.584*3, route:GX
 492
Reciprocal lattice
    0.00000000000000    0.00000000000000    0.00000000000000             1
    0.16666666666667    0.00000000000000    0.00000000000000             8
    0.33333333333333    0.00000000000000    0.00000000000000             8
    0.50000000000000    0.00000000000000    0.00000000000000             4
    0.16666666666667    0.16666666666667    0.00000000000000             6
    0.33333333333333    0.16666666666667    0.00000000000000            24
    0.50000000000000    0.16666666666667    0.00000000000000            24
   -0.33333333333333    0.16666666666667    0.00000000000000            24
   -0.16666666666667    0.16666666666667    0.00000000000000            12
    0.33333333333333    0.33333333333333    0.00000000000000             6
    0.50000000000000    0.33333333333333    0.00000000000000            24
   -0.33333333333333    0.33333333333333    0.00000000000000            12
    0.50000000000000    0.50000000000000    0.00000000000000             3
    0.50000000000000    0.33333333333333    0.16666666666667            24
   -0.33333333333333    0.33333333333333    0.16666666666667            24
   -0.33333333333333    0.50000000000000    0.16666666666667            12
0.00000000  0.00000000  0.00000000   0.00
0.00105042  0.00000000  0.00105042   0.00
0.00210084  0.00000000  0.00210084   0.00
0.00315126  0.00000000  0.00315126   0.00
0.00420168  0.00000000  0.00420168   0.00
0.00525210  0.00000000  0.00525210   0.00
0.00630252  0.00000000  0.00630252   0.00
0.00735294  0.00000000  0.00735294   0.00
0.00840336  0.00000000  0.00840336   0.00
0.00945378  0.00000000  0.00945378   0.00
0.01050420  0.00000000  0.01050420   0.00
0.01155462  0.00000000  0.01155462   0.00
0.01260504  0.00000000  0.01260504   0.00
0.01365546  0.00000000  0.01365546   0.00
0.01470588  0.00000000  0.01470588   0.00
0.01575630  0.00000000  0.01575630   0.00
0.01680672  0.00000000  0.01680672   0.00
0.01785714  0.00000000  0.01785714   0.00
0.01890756  0.00000000  0.01890756   0.00
0.01995798  0.00000000  0.01995798   0.00
0.02100840  0.00000000  0.02100840   0.00
0.02205882  0.00000000  0.02205882   0.00
0.02310924  0.00000000  0.02310924   0.00
0.02415966  0.00000000  0.02415966   0.00
0.02521008  0.00000000  0.02521008   0.00
0.02626050  0.00000000  0.02626050   0.00
0.02731092  0.00000000  0.02731092   0.00
0.02836134  0.00000000  0.02836134   0.00
0.02941176  0.00000000  0.02941176   0.00
0.03046218  0.00000000  0.03046218   0.00
0.03151260  0.00000000  0.03151260   0.00
0.03256302  0.00000000  0.03256302   0.00
0.03361344  0.00000000  0.03361344   0.00
0.03466387  0.00000000  0.03466387   0.00
0.03571429  0.00000000  0.03571429   0.00
0.03676470  0.00000000  0.03676470   0.00
0.03781512  0.00000000  0.03781512   0.00
0.03886555  0.00000000  0.03886555   0.00
0.03991597  0.00000000  0.03991597   0.00
0.04096639  0.00000000  0.04096639   0.00
0.04201680  0.00000000  0.04201680   0.00
0.04306722  0.00000000  0.04306722   0.00
0.04411765  0.00000000  0.04411765   0.00
0.04516807  0.00000000  0.04516807   0.00
0.04621849  0.00000000  0.04621849   0.00
0.04726891  0.00000000  0.04726891   0.00
0.04831933  0.00000000  0.04831933   0.00
0.04936975  0.00000000  0.04936975   0.00
0.05042017  0.00000000  0.05042017   0.00
0.05147059  0.00000000  0.05147059   0.00
0.05252101  0.00000000  0.05252101   0.00
0.05357143  0.00000000  0.05357143   0.00
0.05462185  0.00000000  0.05462185   0.00
0.05567227  0.00000000  0.05567227   0.00
0.05672269  0.00000000  0.05672269   0.00
0.05777311  0.00000000  0.05777311   0.00
0.05882353  0.00000000  0.05882353   0.00
0.05987395  0.00000000  0.05987395   0.00
0.06092437  0.00000000  0.06092437   0.00
0.06197479  0.00000000  0.06197479   0.00
0.06302521  0.00000000  0.06302521   0.00
0.06407563  0.00000000  0.06407563   0.00
0.06512605  0.00000000  0.06512605   0.00
0.06617647  0.00000000  0.06617647   0.00
0.06722689  0.00000000  0.06722689   0.00
0.06827731  0.00000000  0.06827731   0.00
0.06932773  0.00000000  0.06932773   0.00
0.07037815  0.00000000  0.07037815   0.00
0.07142857  0.00000000  0.07142857   0.00
0.07247899  0.00000000  0.07247899   0.00
0.07352941  0.00000000  0.07352941   0.00
0.07457983  0.00000000  0.07457983   0.00
0.07563025  0.00000000  0.07563025   0.00
0.07668067  0.00000000  0.07668067   0.00
0.07773110  0.00000000  0.07773110   0.00
0.07878152  0.00000000  0.07878152   0.00
0.07983194  0.00000000  0.07983194   0.00
0.08088236  0.00000000  0.08088236   0.00
0.08193278  0.00000000  0.08193278   0.00
0.08298320  0.00000000  0.08298320   0.00
0.08403361  0.00000000  0.08403361   0.00
0.08508403  0.00000000  0.08508403   0.00
0.08613445  0.00000000  0.08613445   0.00
0.08718487  0.00000000  0.08718487   0.00
0.08823530  0.00000000  0.08823530   0.00
0.08928572  0.00000000  0.08928572   0.00
0.09033614  0.00000000  0.09033614   0.00
0.09138655  0.00000000  0.09138655   0.00
0.09243698  0.00000000  0.09243698   0.00
0.09348739  0.00000000  0.09348739   0.00
0.09453782  0.00000000  0.09453782   0.00
0.09558823  0.00000000  0.09558823   0.00
0.09663866  0.00000000  0.09663866   0.00
0.09768907  0.00000000  0.09768907   0.00
0.09873950  0.00000000  0.09873950   0.00
0.09978992  0.00000000  0.09978992   0.00
0.10084034  0.00000000  0.10084034   0.00
0.10189076  0.00000000  0.10189076   0.00
0.10294117  0.00000000  0.10294117   0.00
0.10399160  0.00000000  0.10399160   0.00
0.10504201  0.00000000  0.10504201   0.00
0.10609244  0.00000000  0.10609244   0.00
0.10714285  0.00000000  0.10714285   0.00
0.10819328  0.00000000  0.10819328   0.00
0.10924370  0.00000000  0.10924370   0.00
0.11029412  0.00000000  0.11029412   0.00
0.11134454  0.00000000  0.11134454   0.00
0.11239495  0.00000000  0.11239495   0.00
0.11344538  0.00000000  0.11344538   0.00
0.11449579  0.00000000  0.11449579   0.00
0.11554622  0.00000000  0.11554622   0.00
0.11659663  0.00000000  0.11659663   0.00
0.11764706  0.00000000  0.11764706   0.00
0.11869748  0.00000000  0.11869748   0.00
0.11974790  0.00000000  0.11974790   0.00
0.12079832  0.00000000  0.12079832   0.00
0.12184874  0.00000000  0.12184874   0.00
0.12289916  0.00000000  0.12289916   0.00
0.12394957  0.00000000  0.12394957   0.00
0.12500000  0.00000000  0.12500000   0.00
0.12605041  0.00000000  0.12605041   0.00
0.12710084  0.00000000  0.12710084   0.00
0.12815125  0.00000000  0.12815125   0.00
0.12920168  0.00000000  0.12920168   0.00
0.13025209  0.00000000  0.13025209   0.00
0.13130252  0.00000000  0.13130252   0.00
0.13235293  0.00000000  0.13235293   0.00
0.13340336  0.00000000  0.13340336   0.00
0.13445377  0.00000000  0.13445377   0.00
0.13550420  0.00000000  0.13550420   0.00
0.13655463  0.00000000  0.13655463   0.00
0.13760504  0.00000000  0.13760504   0.00
0.13865547  0.00000000  0.13865547   0.00
0.13970588  0.00000000  0.13970588   0.00
0.14075631  0.00000000  0.14075631   0.00
0.14180672  0.00000000  0.14180672   0.00
0.14285715  0.00000000  0.14285715   0.00
0.14390756  0.00000000  0.14390756   0.00
0.14495799  0.00000000  0.14495799   0.00
0.14600840  0.00000000  0.14600840   0.00
0.14705881  0.00000000  0.14705881   0.00
0.14810924  0.00000000  0.14810924   0.00
0.14915965  0.00000000  0.14915965   0.00
0.15021008  0.00000000  0.15021008   0.00
0.15126050  0.00000000  0.15126050   0.00
0.15231092  0.00000000  0.15231092   0.00
0.15336134  0.00000000  0.15336134   0.00
0.15441176  0.00000000  0.15441176   0.00
0.15546219  0.00000000  0.15546219   0.00
0.15651260  0.00000000  0.15651260   0.00
0.15756303  0.00000000  0.15756303   0.00
0.15861344  0.00000000  0.15861344   0.00
0.15966387  0.00000000  0.15966387   0.00
0.16071428  0.00000000  0.16071428   0.00
0.16176471  0.00000000  0.16176471   0.00
0.16281512  0.00000000  0.16281512   0.00
0.16386555  0.00000000  0.16386555   0.00
0.16491596  0.00000000  0.16491596   0.00
0.16596639  0.00000000  0.16596639   0.00
0.16701680  0.00000000  0.16701680   0.00
0.16806722  0.00000000  0.16806722   0.00
0.16911764  0.00000000  0.16911764   0.00
0.17016806  0.00000000  0.17016806   0.00
0.17121848  0.00000000  0.17121848   0.00
0.17226890  0.00000000  0.17226890   0.00
0.17331932  0.00000000  0.17331932   0.00
0.17436974  0.00000000  0.17436974   0.00
0.17542017  0.00000000  0.17542017   0.00
0.17647059  0.00000000  0.17647059   0.00
0.17752101  0.00000000  0.17752101   0.00
0.17857143  0.00000000  0.17857143   0.00
0.17962185  0.00000000  0.17962185   0.00
0.18067227  0.00000000  0.18067227   0.00
0.18172270  0.00000000  0.18172270   0.00
0.18277310  0.00000000  0.18277310   0.00
0.18382353  0.00000000  0.18382353   0.00
0.18487395  0.00000000  0.18487395   0.00
0.18592438  0.00000000  0.18592438   0.00
0.18697478  0.00000000  0.18697478   0.00
0.18802521  0.00000000  0.18802521   0.00
0.18907563  0.00000000  0.18907563   0.00
0.19012606  0.00000000  0.19012606   0.00
0.19117646  0.00000000  0.19117646   0.00
0.19222689  0.00000000  0.19222689   0.00
0.19327731  0.00000000  0.19327731   0.00
0.19432773  0.00000000  0.19432773   0.00
0.19537814  0.00000000  0.19537814   0.00
0.19642857  0.00000000  0.19642857   0.00
0.19747899  0.00000000  0.19747899   0.00
0.19852941  0.00000000  0.19852941   0.00
0.19957983  0.00000000  0.19957983   0.00
0.20063026  0.00000000  0.20063026   0.00
0.20168068  0.00000000  0.20168068   0.00
0.20273109  0.00000000  0.20273109   0.00
0.20378152  0.00000000  0.20378152   0.00
0.20483194  0.00000000  0.20483194   0.00
0.20588234  0.00000000  0.20588234   0.00
0.20693277  0.00000000  0.20693277   0.00
0.20798320  0.00000000  0.20798320   0.00
0.20903362  0.00000000  0.20903362   0.00
0.21008402  0.00000000  0.21008402   0.00
0.21113445  0.00000000  0.21113445   0.00
0.21218488  0.00000000  0.21218488   0.00
0.21323529  0.00000000  0.21323529   0.00
0.21428570  0.00000000  0.21428570   0.00
0.21533613  0.00000000  0.21533613   0.00
0.21638656  0.00000000  0.21638656   0.00
0.21743697  0.00000000  0.21743697   0.00
0.21848740  0.00000000  0.21848740   0.00
0.21953781  0.00000000  0.21953781   0.00
0.22058824  0.00000000  0.22058824   0.00
0.22163865  0.00000000  0.22163865   0.00
0.22268908  0.00000000  0.22268908   0.00
0.22373950  0.00000000  0.22373950   0.00
0.22478990  0.00000000  0.22478990   0.00
0.22584033  0.00000000  0.22584033   0.00
0.22689076  0.00000000  0.22689076   0.00
0.22794119  0.00000000  0.22794119   0.00
0.22899158  0.00000000  0.22899158   0.00
0.23004201  0.00000000  0.23004201   0.00
0.23109244  0.00000000  0.23109244   0.00
0.23214287  0.00000000  0.23214287   0.00
0.23319326  0.00000000  0.23319326   0.00
0.23424369  0.00000000  0.23424369   0.00
0.23529412  0.00000000  0.23529412   0.00
0.23634453  0.00000000  0.23634453   0.00
0.23739496  0.00000000  0.23739496   0.00
0.23844537  0.00000000  0.23844537   0.00
0.23949580  0.00000000  0.23949580   0.00
0.24054621  0.00000000  0.24054621   0.00
0.24159664  0.00000000  0.24159664   0.00
0.24264707  0.00000000  0.24264707   0.00
0.24369748  0.00000000  0.24369748   0.00
0.24474789  0.00000000  0.24474789   0.00
0.24579832  0.00000000  0.24579832   0.00
0.24684875  0.00000000  0.24684875   0.00
0.24789914  0.00000000  0.24789914   0.00
0.24894957  0.00000000  0.24894957   0.00
0.25000000  0.00000000  0.25000000   0.00
0.25105041  0.00000000  0.25105041   0.00
0.25210083  0.00000000  0.25210083   0.00
0.25315127  0.00000000  0.25315127   0.00
0.25420168  0.00000000  0.25420168   0.00
0.25525212  0.00000000  0.25525212   0.00
0.25630251  0.00000000  0.25630251   0.00
0.25735295  0.00000000  0.25735295   0.00
0.25840336  0.00000000  0.25840336   0.00
0.25945377  0.00000000  0.25945377   0.00
0.26050419  0.00000000  0.26050419   0.00
0.26155463  0.00000000  0.26155463   0.00
0.26260504  0.00000000  0.26260504   0.00
0.26365545  0.00000000  0.26365545   0.00
0.26470587  0.00000000  0.26470587   0.00
0.26575631  0.00000000  0.26575631   0.00
0.26680672  0.00000000  0.26680672   0.00
0.26785713  0.00000000  0.26785713   0.00
0.26890755  0.00000000  0.26890755   0.00
0.26995799  0.00000000  0.26995799   0.00
0.27100840  0.00000000  0.27100840   0.00
0.27205881  0.00000000  0.27205881   0.00
0.27310926  0.00000000  0.27310926   0.00
0.27415967  0.00000000  0.27415967   0.00
0.27521008  0.00000000  0.27521008   0.00
0.27626050  0.00000000  0.27626050   0.00
0.27731094  0.00000000  0.27731094   0.00
0.27836135  0.00000000  0.27836135   0.00
0.27941176  0.00000000  0.27941176   0.00
0.28046218  0.00000000  0.28046218   0.00
0.28151262  0.00000000  0.28151262   0.00
0.28256300  0.00000000  0.28256300   0.00
0.28361344  0.00000000  0.28361344   0.00
0.28466386  0.00000000  0.28466386   0.00
0.28571430  0.00000000  0.28571430   0.00
0.28676471  0.00000000  0.28676471   0.00
0.28781512  0.00000000  0.28781512   0.00
0.28886554  0.00000000  0.28886554   0.00
0.28991598  0.00000000  0.28991598   0.00
0.29096639  0.00000000  0.29096639   0.00
0.29201680  0.00000000  0.29201680   0.00
0.29306722  0.00000000  0.29306722   0.00
0.29411763  0.00000000  0.29411763   0.00
0.29516807  0.00000000  0.29516807   0.00
0.29621848  0.00000000  0.29621848   0.00
0.29726893  0.00000000  0.29726893   0.00
0.29831931  0.00000000  0.29831931   0.00
0.29936975  0.00000000  0.29936975   0.00
0.30042017  0.00000000  0.30042017   0.00
0.30147061  0.00000000  0.30147061   0.00
0.30252099  0.00000000  0.30252099   0.00
0.30357143  0.00000000  0.30357143   0.00
0.30462185  0.00000000  0.30462185   0.00
0.30567226  0.00000000  0.30567226   0.00
0.30672267  0.00000000  0.30672267   0.00
0.30777311  0.00000000  0.30777311   0.00
0.30882353  0.00000000  0.30882353   0.00
0.30987394  0.00000000  0.30987394   0.00
0.31092438  0.00000000  0.31092438   0.00
0.31197479  0.00000000  0.31197479   0.00
0.31302521  0.00000000  0.31302521   0.00
0.31407562  0.00000000  0.31407562   0.00
0.31512606  0.00000000  0.31512606   0.00
0.31617647  0.00000000  0.31617647   0.00
0.31722689  0.00000000  0.31722689   0.00
0.31827730  0.00000000  0.31827730   0.00
0.31932774  0.00000000  0.31932774   0.00
0.32037815  0.00000000  0.32037815   0.00
0.32142857  0.00000000  0.32142857   0.00
0.32247898  0.00000000  0.32247898   0.00
0.32352942  0.00000000  0.32352942   0.00
0.32457983  0.00000000  0.32457983   0.00
0.32563025  0.00000000  0.32563025   0.00
0.32668066  0.00000000  0.32668066   0.00
0.32773110  0.00000000  0.32773110   0.00
0.32878152  0.00000000  0.32878152   0.00
0.32983193  0.00000000  0.32983193   0.00
0.33088234  0.00000000  0.33088234   0.00
0.33193278  0.00000000  0.33193278   0.00
0.33298320  0.00000000  0.33298320   0.00
0.33403361  0.00000000  0.33403361   0.00
0.33508405  0.00000000  0.33508405   0.00
0.33613443  0.00000000  0.33613443   0.00
0.33718488  0.00000000  0.33718488   0.00
0.33823529  0.00000000  0.33823529   0.00
0.33928573  0.00000000  0.33928573   0.00
0.34033611  0.00000000  0.34033611   0.00
0.34138656  0.00000000  0.34138656   0.00
0.34243697  0.00000000  0.34243697   0.00
0.34348741  0.00000000  0.34348741   0.00
0.34453779  0.00000000  0.34453779   0.00
0.34558824  0.00000000  0.34558824   0.00
0.34663865  0.00000000  0.34663865   0.00
0.34768906  0.00000000  0.34768906   0.00
0.34873948  0.00000000  0.34873948   0.00
0.34978992  0.00000000  0.34978992   0.00
0.35084033  0.00000000  0.35084033   0.00
0.35189074  0.00000000  0.35189074   0.00
0.35294119  0.00000000  0.35294119   0.00
0.35399160  0.00000000  0.35399160   0.00
0.35504201  0.00000000  0.35504201   0.00
0.35609245  0.00000000  0.35609245   0.00
0.35714287  0.00000000  0.35714287   0.00
0.35819325  0.00000000  0.35819325   0.00
0.35924369  0.00000000  0.35924369   0.00
0.36029410  0.00000000  0.36029410   0.00
0.36134455  0.00000000  0.36134455   0.00
0.36239496  0.00000000  0.36239496   0.00
0.36344540  0.00000000  0.36344540   0.00
0.36449581  0.00000000  0.36449581   0.00
0.36554620  0.00000000  0.36554620   0.00
0.36659661  0.00000000  0.36659661   0.00
0.36764705  0.00000000  0.36764705   0.00
0.36869746  0.00000000  0.36869746   0.00
0.36974791  0.00000000  0.36974791   0.00
0.37079832  0.00000000  0.37079832   0.00
0.37184876  0.00000000  0.37184876   0.00
0.37289914  0.00000000  0.37289914   0.00
0.37394956  0.00000000  0.37394956   0.00
0.37500000  0.00000000  0.37500000   0.00
0.37605041  0.00000000  0.37605041   0.00
0.37710086  0.00000000  0.37710086   0.00
0.37815127  0.00000000  0.37815127   0.00
0.37920168  0.00000000  0.37920168   0.00
0.38025212  0.00000000  0.38025212   0.00
0.38130251  0.00000000  0.38130251   0.00
0.38235292  0.00000000  0.38235292   0.00
0.38340336  0.00000000  0.38340336   0.00
0.38445377  0.00000000  0.38445377   0.00
0.38550422  0.00000000  0.38550422   0.00
0.38655463  0.00000000  0.38655463   0.00
0.38760507  0.00000000  0.38760507   0.00
0.38865545  0.00000000  0.38865545   0.00
0.38970587  0.00000000  0.38970587   0.00
0.39075628  0.00000000  0.39075628   0.00
0.39180672  0.00000000  0.39180672   0.00
0.39285713  0.00000000  0.39285713   0.00
0.39390758  0.00000000  0.39390758   0.00
0.39495799  0.00000000  0.39495799   0.00
0.39600837  0.00000000  0.39600837   0.00
0.39705881  0.00000000  0.39705881   0.00
0.39810923  0.00000000  0.39810923   0.00
0.39915967  0.00000000  0.39915967   0.00
0.40021008  0.00000000  0.40021008   0.00
0.40126052  0.00000000  0.40126052   0.00
0.40231094  0.00000000  0.40231094   0.00
0.40336135  0.00000000  0.40336135   0.00
0.40441173  0.00000000  0.40441173   0.00
0.40546218  0.00000000  0.40546218   0.00
0.40651259  0.00000000  0.40651259   0.00
0.40756303  0.00000000  0.40756303   0.00
0.40861344  0.00000000  0.40861344   0.00
0.40966389  0.00000000  0.40966389   0.00
0.41071430  0.00000000  0.41071430   0.00
0.41176468  0.00000000  0.41176468   0.00
0.41281512  0.00000000  0.41281512   0.00
0.41386554  0.00000000  0.41386554   0.00
0.41491595  0.00000000  0.41491595   0.00
0.41596639  0.00000000  0.41596639   0.00
0.41701680  0.00000000  0.41701680   0.00
0.41806725  0.00000000  0.41806725   0.00
0.41911763  0.00000000  0.41911763   0.00
0.42016804  0.00000000  0.42016804   0.00
0.42121848  0.00000000  0.42121848   0.00
0.42226890  0.00000000  0.42226890   0.00
0.42331934  0.00000000  0.42331934   0.00
0.42436975  0.00000000  0.42436975   0.00
0.42542019  0.00000000  0.42542019   0.00
0.42647058  0.00000000  0.42647058   0.00
0.42752099  0.00000000  0.42752099   0.00
0.42857140  0.00000000  0.42857140   0.00
0.42962185  0.00000000  0.42962185   0.00
0.43067226  0.00000000  0.43067226   0.00
0.43172270  0.00000000  0.43172270   0.00
0.43277311  0.00000000  0.43277311   0.00
0.43382356  0.00000000  0.43382356   0.00
0.43487394  0.00000000  0.43487394   0.00
0.43592435  0.00000000  0.43592435   0.00
0.43697479  0.00000000  0.43697479   0.00
0.43802521  0.00000000  0.43802521   0.00
0.43907562  0.00000000  0.43907562   0.00
0.44012606  0.00000000  0.44012606   0.00
0.44117647  0.00000000  0.44117647   0.00
0.44222686  0.00000000  0.44222686   0.00
0.44327730  0.00000000  0.44327730   0.00
0.44432771  0.00000000  0.44432771   0.00
0.44537815  0.00000000  0.44537815   0.00
0.44642857  0.00000000  0.44642857   0.00
0.44747901  0.00000000  0.44747901   0.00
0.44852942  0.00000000  0.44852942   0.00
0.44957981  0.00000000  0.44957981   0.00
0.45063025  0.00000000  0.45063025   0.00
0.45168066  0.00000000  0.45168066   0.00
0.45273107  0.00000000  0.45273107   0.00
0.45378152  0.00000000  0.45378152   0.00
0.45483193  0.00000000  0.45483193   0.00
0.45588237  0.00000000  0.45588237   0.00
0.45693278  0.00000000  0.45693278   0.00
0.45798317  0.00000000  0.45798317   0.00
0.45903361  0.00000000  0.45903361   0.00
0.46008402  0.00000000  0.46008402   0.00
0.46113446  0.00000000  0.46113446   0.00
0.46218488  0.00000000  0.46218488   0.00
0.46323529  0.00000000  0.46323529   0.00
0.46428573  0.00000000  0.46428573   0.00
0.46533611  0.00000000  0.46533611   0.00
0.46638653  0.00000000  0.46638653   0.00
0.46743697  0.00000000  0.46743697   0.00
0.46848738  0.00000000  0.46848738   0.00
0.46953782  0.00000000  0.46953782   0.00
0.47058824  0.00000000  0.47058824   0.00
0.47163868  0.00000000  0.47163868   0.00
0.47268906  0.00000000  0.47268906   0.00
0.47373948  0.00000000  0.47373948   0.00
0.47478992  0.00000000  0.47478992   0.00
0.47584033  0.00000000  0.47584033   0.00
0.47689074  0.00000000  0.47689074   0.00
0.47794119  0.00000000  0.47794119   0.00
0.47899160  0.00000000  0.47899160   0.00
0.48004204  0.00000000  0.48004204   0.00
0.48109242  0.00000000  0.48109242   0.00
0.48214284  0.00000000  0.48214284   0.00
0.48319328  0.00000000  0.48319328   0.00
0.48424369  0.00000000  0.48424369   0.00
0.48529413  0.00000000  0.48529413   0.00
0.48634455  0.00000000  0.48634455   0.00
0.48739496  0.00000000  0.48739496   0.00
0.48844537  0.00000000  0.48844537   0.00
0.48949578  0.00000000  0.48949578   0.00
0.49054620  0.00000000  0.49054620   0.00
0.49159664  0.00000000  0.49159664   0.00
0.49264705  0.00000000  0.49264705   0.00
0.49369749  0.00000000  0.49369749   0.00
0.49474791  0.00000000  0.49474791   0.00
0.49579829  0.00000000  0.49579829   0.00
0.49684873  0.00000000  0.49684873   0.00
0.49789914  0.00000000  0.49789914   0.00
0.49894959  0.00000000  0.49894959   0.00
0.50000000  0.00000000  0.50000000   0.00
