C N H Pb I                              
   1.00000000000000     
    12.5768374277686394    0.0019159116494978    0.1381987933539664
     0.0011956322447466   12.4575380825249127   -0.0007464134870236
     0.1394107043392118    0.0000890449825412   12.7474206252920563
   C    N    H    Pb   I 
     8     8    48     8    24
Direct
  0.2041547812311748  0.2499381338050028  0.2177628162878023
  0.6898334835941213  0.2498784164236056  0.2400678923932915
  0.1898334835941213  0.7498784164236056  0.2400678923932915
  0.7041547812311748  0.7499381338050028  0.2177628162878023
  0.2041547812311748  0.2499381338050028  0.7177628162878023
  0.6898334835941213  0.2498784164236056  0.7400678923932915
  0.1898334835941213  0.7498784164236056  0.7400678923932915
  0.7041547812311748  0.7499381338050028  0.7177628162878023
  0.3065077633127089  0.2500262935248969  0.2745151211277417
  0.8025666745207261  0.2499809877082697  0.2732534718208655
  0.3025666745207261  0.7499809877082697  0.2732534718208655
  0.8065077633127089  0.7500262935248969  0.2745151211277417
  0.3065077633127089  0.2500262935248969  0.7745151211277417
  0.8025666745207261  0.2499809877082697  0.7732534718208655
  0.3025666745207261  0.7499809877082697  0.7732534718208655
  0.8065077633127089  0.7500262935248969  0.7745151211277417
  0.2219241545857003  0.2498201470668420  0.1324136367387041
  0.6882261798878062  0.2498220455812188  0.1533636151547242
  0.1882261798878062  0.7498220455812188  0.1533636151547242
  0.7219241545857003  0.7498201470668420  0.1324136367387041
  0.2219241545857003  0.2498201470668420  0.6324136367387041
  0.6882261798878062  0.2498220455812188  0.6533636151547242
  0.1882261798878062  0.7498220455812188  0.6533636151547242
  0.7219241545857003  0.7498201470668420  0.6324136367387041
  0.1588134563176098  0.3224635815971837  0.2398893860388824
  0.6498621570392373  0.3222407917835710  0.2711412524537522
  0.1498621570392373  0.8222407917835710  0.2711412524537522
  0.6588134563176098  0.8224635815971837  0.2398893860388824
  0.1588134563176098  0.3224635815971837  0.7398893860388824
  0.6498621570392373  0.3222407917835710  0.7711412524537522
  0.1498621570392373  0.8222407917835710  0.7711412524537522
  0.6588134563176098  0.8224635815971837  0.7398893860388824
  0.1588730246549446  0.1774589709914380  0.2400775707740976
  0.6500126426235227  0.1774931759588867  0.2712238426465277
  0.1500126426235227  0.6774931759588867  0.2712238426465277
  0.6588730246549446  0.6774589709914380  0.2400775707740976
  0.1588730246549446  0.1774589709914380  0.7400775707740976
  0.6500126426235227  0.1774931759588867  0.7712238426465277
  0.1500126426235227  0.6774931759588867  0.7712238426465277
  0.6588730246549446  0.6774589709914380  0.7400775707740976
  0.3523724232442262  0.3181130941213510  0.2560806274674476
  0.8438967315091830  0.3176354716930945  0.2454323544990302
  0.3438967315091830  0.8176354716930945  0.2454323544990302
  0.8523724232442262  0.8181130941213510  0.2560806274674476
  0.3523724232442262  0.3181130941213510  0.7560806274674476
  0.8438967315091830  0.3176354716930945  0.7454323544990302
  0.3438967315091830  0.8176354716930945  0.7454323544990302
  0.8523724232442262  0.8181130941213510  0.7560806274674476
  0.3523989960344309  0.1818763440947322  0.2562701039637787
  0.8440116044726480  0.1823334308479332  0.2455116956913486
  0.3440116044726480  0.6823334308479332  0.2455116956913486
  0.8523989960344309  0.6818763440947322  0.2562701039637787
  0.3523989960344309  0.1818763440947322  0.7562701039637787
  0.8440116044726480  0.1823334308479332  0.7455116956913486
  0.3440116044726480  0.6823334308479332  0.7455116956913486
  0.8523989960344309  0.6818763440947322  0.7562701039637787
  0.2951287191607008  0.2501554222802511  0.3559282698280839
  0.8112114267853272  0.2500316211586906  0.3552902195115806
  0.3112114267853272  0.7500316211586906  0.3552902195115806
  0.7951287191607008  0.7501554222802511  0.3559282698280839
  0.2951287191607008  0.2501554222802511  0.8559282698280839
  0.8112114267853272  0.2500316211586906  0.8552902195115806
  0.3112114267853272  0.7500316211586906  0.8552902195115806
  0.7951287191607008  0.7501554222802511  0.8559282698280839
  0.4724480533168958  0.5011574587666345  0.4888098905446441
  0.9724354986408272  0.4988221309632337  0.4888130034849638
  0.4724354986408272  0.9988221309632337  0.4888130034849638
  0.9724480533168887  0.0011574587666345  0.4888098905446441
  0.4724480533168887  0.5011574587666345  0.9888098905446441
  0.9724354986408272  0.4988221309632337  0.9888130034849638
  0.4724354986408272  0.9988221309632337  0.9888130034849638
  0.9724480533168887  0.0011574587666345  0.9888098905446441
  0.4547610742927546  0.5006127883680307  0.2375690415383716
  0.9547262743670473  0.4993693106565971  0.2375764423786180
  0.4547262743670473  0.9993693106565971  0.2375764423786180
  0.9547610742927546  0.0006127883680307  0.2375690415383716
  0.4547610742927546  0.5006127883680307  0.7375690415383716
  0.9547262743670473  0.4993693106565971  0.7375764423786180
  0.4547262743670473  0.9993693106565971  0.7375764423786180
  0.9547610742927546  0.0006127883680307  0.7375690415383716
  0.4721283820245432  0.2499745673203151  0.0076052730359990
  0.9271424971032474  0.2499834537707670  0.0160591624324198
  0.4271424971032474  0.7499834537707670  0.0160591624324198
  0.9721283820245432  0.7499745673203151  0.0076052730359990
  0.4721283820245432  0.2499745673203151  0.5076052730359990
  0.9271424971032474  0.2499834537707670  0.5160591624324198
  0.4271424971032474  0.7499834537707670  0.5160591624324198
  0.9721283820245432  0.7499745673203151  0.5076052730359990
  0.2161768679966656  0.4731506070914833  0.4612396978348201
  0.7161660088839099  0.5268442656260603  0.4612397058523925
  0.2161660088839099  0.0268442656260603  0.4612397058523925
  0.7161768679966656  0.9731506070914833  0.4612396978348201
  0.2161768679966656  0.4731506070914833  0.9612396978348201
  0.7161660088839099  0.5268442656260603  0.9612397058523925
  0.2161660088839099  0.0268442656260603  0.9612397058523925
  0.7161768679966656  0.9731506070914833  0.9612396978348201
 
  0.00000000E+00  0.00000000E+00  0.00000000E+00
  0.00000000E+00  0.00000000E+00  0.00000000E+00
  0.00000000E+00  0.00000000E+00  0.00000000E+00
  0.00000000E+00  0.00000000E+00  0.00000000E+00
  0.00000000E+00  0.00000000E+00  0.00000000E+00
  0.00000000E+00  0.00000000E+00  0.00000000E+00
  0.00000000E+00  0.00000000E+00  0.00000000E+00
  0.00000000E+00  0.00000000E+00  0.00000000E+00
  0.00000000E+00  0.00000000E+00  0.00000000E+00
  0.00000000E+00  0.00000000E+00  0.00000000E+00
  0.00000000E+00  0.00000000E+00  0.00000000E+00
  0.00000000E+00  0.00000000E+00  0.00000000E+00
  0.00000000E+00  0.00000000E+00  0.00000000E+00
  0.00000000E+00  0.00000000E+00  0.00000000E+00
  0.00000000E+00  0.00000000E+00  0.00000000E+00
  0.00000000E+00  0.00000000E+00  0.00000000E+00
  0.00000000E+00  0.00000000E+00  0.00000000E+00
  0.00000000E+00  0.00000000E+00  0.00000000E+00
  0.00000000E+00  0.00000000E+00  0.00000000E+00
  0.00000000E+00  0.00000000E+00  0.00000000E+00
  0.00000000E+00  0.00000000E+00  0.00000000E+00
  0.00000000E+00  0.00000000E+00  0.00000000E+00
  0.00000000E+00  0.00000000E+00  0.00000000E+00
  0.00000000E+00  0.00000000E+00  0.00000000E+00
  0.00000000E+00  0.00000000E+00  0.00000000E+00
  0.00000000E+00  0.00000000E+00  0.00000000E+00
  0.00000000E+00  0.00000000E+00  0.00000000E+00
  0.00000000E+00  0.00000000E+00  0.00000000E+00
  0.00000000E+00  0.00000000E+00  0.00000000E+00
  0.00000000E+00  0.00000000E+00  0.00000000E+00
  0.00000000E+00  0.00000000E+00  0.00000000E+00
  0.00000000E+00  0.00000000E+00  0.00000000E+00
  0.00000000E+00  0.00000000E+00  0.00000000E+00
  0.00000000E+00  0.00000000E+00  0.00000000E+00
  0.00000000E+00  0.00000000E+00  0.00000000E+00
  0.00000000E+00  0.00000000E+00  0.00000000E+00
  0.00000000E+00  0.00000000E+00  0.00000000E+00
  0.00000000E+00  0.00000000E+00  0.00000000E+00
  0.00000000E+00  0.00000000E+00  0.00000000E+00
  0.00000000E+00  0.00000000E+00  0.00000000E+00
  0.00000000E+00  0.00000000E+00  0.00000000E+00
  0.00000000E+00  0.00000000E+00  0.00000000E+00
  0.00000000E+00  0.00000000E+00  0.00000000E+00
  0.00000000E+00  0.00000000E+00  0.00000000E+00
  0.00000000E+00  0.00000000E+00  0.00000000E+00
  0.00000000E+00  0.00000000E+00  0.00000000E+00
  0.00000000E+00  0.00000000E+00  0.00000000E+00
  0.00000000E+00  0.00000000E+00  0.00000000E+00
  0.00000000E+00  0.00000000E+00  0.00000000E+00
  0.00000000E+00  0.00000000E+00  0.00000000E+00
  0.00000000E+00  0.00000000E+00  0.00000000E+00
  0.00000000E+00  0.00000000E+00  0.00000000E+00
  0.00000000E+00  0.00000000E+00  0.00000000E+00
  0.00000000E+00  0.00000000E+00  0.00000000E+00
  0.00000000E+00  0.00000000E+00  0.00000000E+00
  0.00000000E+00  0.00000000E+00  0.00000000E+00
  0.00000000E+00  0.00000000E+00  0.00000000E+00
  0.00000000E+00  0.00000000E+00  0.00000000E+00
  0.00000000E+00  0.00000000E+00  0.00000000E+00
  0.00000000E+00  0.00000000E+00  0.00000000E+00
  0.00000000E+00  0.00000000E+00  0.00000000E+00
  0.00000000E+00  0.00000000E+00  0.00000000E+00
  0.00000000E+00  0.00000000E+00  0.00000000E+00
  0.00000000E+00  0.00000000E+00  0.00000000E+00
  0.00000000E+00  0.00000000E+00  0.00000000E+00
  0.00000000E+00  0.00000000E+00  0.00000000E+00
  0.00000000E+00  0.00000000E+00  0.00000000E+00
  0.00000000E+00  0.00000000E+00  0.00000000E+00
  0.00000000E+00  0.00000000E+00  0.00000000E+00
  0.00000000E+00  0.00000000E+00  0.00000000E+00
  0.00000000E+00  0.00000000E+00  0.00000000E+00
  0.00000000E+00  0.00000000E+00  0.00000000E+00
  0.00000000E+00  0.00000000E+00  0.00000000E+00
  0.00000000E+00  0.00000000E+00  0.00000000E+00
  0.00000000E+00  0.00000000E+00  0.00000000E+00
  0.00000000E+00  0.00000000E+00  0.00000000E+00
  0.00000000E+00  0.00000000E+00  0.00000000E+00
  0.00000000E+00  0.00000000E+00  0.00000000E+00
  0.00000000E+00  0.00000000E+00  0.00000000E+00
  0.00000000E+00  0.00000000E+00  0.00000000E+00
  0.00000000E+00  0.00000000E+00  0.00000000E+00
  0.00000000E+00  0.00000000E+00  0.00000000E+00
  0.00000000E+00  0.00000000E+00  0.00000000E+00
  0.00000000E+00  0.00000000E+00  0.00000000E+00
  0.00000000E+00  0.00000000E+00  0.00000000E+00
  0.00000000E+00  0.00000000E+00  0.00000000E+00
  0.00000000E+00  0.00000000E+00  0.00000000E+00
  0.00000000E+00  0.00000000E+00  0.00000000E+00
  0.00000000E+00  0.00000000E+00  0.00000000E+00
  0.00000000E+00  0.00000000E+00  0.00000000E+00
  0.00000000E+00  0.00000000E+00  0.00000000E+00
  0.00000000E+00  0.00000000E+00  0.00000000E+00
  0.00000000E+00  0.00000000E+00  0.00000000E+00
  0.00000000E+00  0.00000000E+00  0.00000000E+00
  0.00000000E+00  0.00000000E+00  0.00000000E+00
  0.00000000E+00  0.00000000E+00  0.00000000E+00
