SYSTEM = Name
!Start Parameters
 ISTART     = 1     (Read existing wavefunction, if present)
 ICORELEVEL = 1     (Print core levels in OUTCAR)
!! ICHARG   =  11   (Non-selfconsistent: band structures)

!Electronic Relaxation
 PREC   = Accurate    (Precision level for FFT grid)
 LREAL  = False       (Projection operators: automatic)
 ENMAX  = 500.00 eV   (Plane-wave cutoff)
 EDIFF  = 1E-06       (SCF convergence criteria)
 GGA    =  PE        (PBEsol exchange-correlation)

!Ionic Relaxation
 EDIFFG =      -0.005 (Ionic convergence criteria, eV/AA)
 NSW    =      1    (Max ionic steps)
 IBRION =      2      (Ions: 0-MD, 1-Quasi-New, 2-CG)
 ISIF   =      3      (Stress/Relaxation: 2-Ions, 3-Shape/Ions/Vol, 7-Vol)
 ISYM   =      2      (Symmetry: Use all, 0: none)
 ISMEAR =      0      (Gaussian smearing, Metals:1, MP)
 SIGMA  =      0.01   (Smearing value in eV, Metals:0.2)

 LORBIT    =   10     (PAW radii for projected DOS)\\
 NPAR   = 1       (Max is no. nodes)
 KPAR   = 1
 LSORBIT = .TRUE.  (Spin-orbit coupling)


