Automatically generated mesh SCF: 16 steps, 238,  dim: 4.584*3, route:GX
    254
Reciprocal lattice
    0.00000000000000    0.00000000000000    0.00000000000000             1
    0.16666666666667    0.00000000000000    0.00000000000000             8
    0.33333333333333    0.00000000000000    0.00000000000000             8
    0.50000000000000    0.00000000000000    0.00000000000000             4
    0.16666666666667    0.16666666666667    0.00000000000000             6
    0.33333333333333    0.16666666666667    0.00000000000000            24
    0.50000000000000    0.16666666666667    0.00000000000000            24
   -0.33333333333333    0.16666666666667    0.00000000000000            24
   -0.16666666666667    0.16666666666667    0.00000000000000            12
    0.33333333333333    0.33333333333333    0.00000000000000             6
    0.50000000000000    0.33333333333333    0.00000000000000            24
   -0.33333333333333    0.33333333333333    0.00000000000000            12
    0.50000000000000    0.50000000000000    0.00000000000000             3
    0.50000000000000    0.33333333333333    0.16666666666667            24
   -0.33333333333333    0.33333333333333    0.16666666666667            24
   -0.33333333333333    0.50000000000000    0.16666666666667            12
0.00000000  0.00000000  0.00000000   0.00
0.00210084  0.00000000  0.00210084   0.00
0.00420168  0.00000000  0.00420168   0.00
0.00630252  0.00000000  0.00630252   0.00
0.00840336  0.00000000  0.00840336   0.00
0.01050420  0.00000000  0.01050420   0.00
0.01260504  0.00000000  0.01260504   0.00
0.01470588  0.00000000  0.01470588   0.00
0.01680672  0.00000000  0.01680672   0.00
0.01890756  0.00000000  0.01890756   0.00
0.02100840  0.00000000  0.02100840   0.00
0.02310924  0.00000000  0.02310924   0.00
0.02521008  0.00000000  0.02521008   0.00
0.02731092  0.00000000  0.02731092   0.00
0.02941176  0.00000000  0.02941176   0.00
0.03151260  0.00000000  0.03151260   0.00
0.03361344  0.00000000  0.03361344   0.00
0.03571429  0.00000000  0.03571429   0.00
0.03781512  0.00000000  0.03781512   0.00
0.03991597  0.00000000  0.03991597   0.00
0.04201680  0.00000000  0.04201680   0.00
0.04411765  0.00000000  0.04411765   0.00
0.04621849  0.00000000  0.04621849   0.00
0.04831933  0.00000000  0.04831933   0.00
0.05042017  0.00000000  0.05042017   0.00
0.05252101  0.00000000  0.05252101   0.00
0.05462185  0.00000000  0.05462185   0.00
0.05672269  0.00000000  0.05672269   0.00
0.05882353  0.00000000  0.05882353   0.00
0.06092437  0.00000000  0.06092437   0.00
0.06302521  0.00000000  0.06302521   0.00
0.06512605  0.00000000  0.06512605   0.00
0.06722689  0.00000000  0.06722689   0.00
0.06932773  0.00000000  0.06932773   0.00
0.07142857  0.00000000  0.07142857   0.00
0.07352941  0.00000000  0.07352941   0.00
0.07563025  0.00000000  0.07563025   0.00
0.07773110  0.00000000  0.07773110   0.00
0.07983194  0.00000000  0.07983194   0.00
0.08193278  0.00000000  0.08193278   0.00
0.08403361  0.00000000  0.08403361   0.00
0.08613445  0.00000000  0.08613445   0.00
0.08823530  0.00000000  0.08823530   0.00
0.09033614  0.00000000  0.09033614   0.00
0.09243698  0.00000000  0.09243698   0.00
0.09453782  0.00000000  0.09453782   0.00
0.09663866  0.00000000  0.09663866   0.00
0.09873950  0.00000000  0.09873950   0.00
0.10084034  0.00000000  0.10084034   0.00
0.10294117  0.00000000  0.10294117   0.00
0.10504201  0.00000000  0.10504201   0.00
0.10714285  0.00000000  0.10714285   0.00
0.10924370  0.00000000  0.10924370   0.00
0.11134454  0.00000000  0.11134454   0.00
0.11344538  0.00000000  0.11344538   0.00
0.11554622  0.00000000  0.11554622   0.00
0.11764706  0.00000000  0.11764706   0.00
0.11974790  0.00000000  0.11974790   0.00
0.12184874  0.00000000  0.12184874   0.00
0.12394957  0.00000000  0.12394957   0.00
0.12605041  0.00000000  0.12605041   0.00
0.12815125  0.00000000  0.12815125   0.00
0.13025209  0.00000000  0.13025209   0.00
0.13235293  0.00000000  0.13235293   0.00
0.13445377  0.00000000  0.13445377   0.00
0.13655463  0.00000000  0.13655463   0.00
0.13865547  0.00000000  0.13865547   0.00
0.14075631  0.00000000  0.14075631   0.00
0.14285715  0.00000000  0.14285715   0.00
0.14495799  0.00000000  0.14495799   0.00
0.14705881  0.00000000  0.14705881   0.00
0.14915965  0.00000000  0.14915965   0.00
0.15126050  0.00000000  0.15126050   0.00
0.15336134  0.00000000  0.15336134   0.00
0.15546219  0.00000000  0.15546219   0.00
0.15756303  0.00000000  0.15756303   0.00
0.15966387  0.00000000  0.15966387   0.00
0.16176471  0.00000000  0.16176471   0.00
0.16386555  0.00000000  0.16386555   0.00
0.16596639  0.00000000  0.16596639   0.00
0.16806722  0.00000000  0.16806722   0.00
0.17016806  0.00000000  0.17016806   0.00
0.17226890  0.00000000  0.17226890   0.00
0.17436974  0.00000000  0.17436974   0.00
0.17647059  0.00000000  0.17647059   0.00
0.17857143  0.00000000  0.17857143   0.00
0.18067227  0.00000000  0.18067227   0.00
0.18277310  0.00000000  0.18277310   0.00
0.18487395  0.00000000  0.18487395   0.00
0.18697478  0.00000000  0.18697478   0.00
0.18907563  0.00000000  0.18907563   0.00
0.19117646  0.00000000  0.19117646   0.00
0.19327731  0.00000000  0.19327731   0.00
0.19537814  0.00000000  0.19537814   0.00
0.19747899  0.00000000  0.19747899   0.00
0.19957983  0.00000000  0.19957983   0.00
0.20168068  0.00000000  0.20168068   0.00
0.20378152  0.00000000  0.20378152   0.00
0.20588234  0.00000000  0.20588234   0.00
0.20798320  0.00000000  0.20798320   0.00
0.21008402  0.00000000  0.21008402   0.00
0.21218488  0.00000000  0.21218488   0.00
0.21428570  0.00000000  0.21428570   0.00
0.21638656  0.00000000  0.21638656   0.00
0.21848740  0.00000000  0.21848740   0.00
0.22058824  0.00000000  0.22058824   0.00
0.22268908  0.00000000  0.22268908   0.00
0.22478990  0.00000000  0.22478990   0.00
0.22689076  0.00000000  0.22689076   0.00
0.22899158  0.00000000  0.22899158   0.00
0.23109244  0.00000000  0.23109244   0.00
0.23319326  0.00000000  0.23319326   0.00
0.23529412  0.00000000  0.23529412   0.00
0.23739496  0.00000000  0.23739496   0.00
0.23949580  0.00000000  0.23949580   0.00
0.24159664  0.00000000  0.24159664   0.00
0.24369748  0.00000000  0.24369748   0.00
0.24579832  0.00000000  0.24579832   0.00
0.24789914  0.00000000  0.24789914   0.00
0.25000000  0.00000000  0.25000000   0.00
0.25210083  0.00000000  0.25210083   0.00
0.25420168  0.00000000  0.25420168   0.00
0.25630251  0.00000000  0.25630251   0.00
0.25840336  0.00000000  0.25840336   0.00
0.26050419  0.00000000  0.26050419   0.00
0.26260504  0.00000000  0.26260504   0.00
0.26470587  0.00000000  0.26470587   0.00
0.26680672  0.00000000  0.26680672   0.00
0.26890755  0.00000000  0.26890755   0.00
0.27100840  0.00000000  0.27100840   0.00
0.27310926  0.00000000  0.27310926   0.00
0.27521008  0.00000000  0.27521008   0.00
0.27731094  0.00000000  0.27731094   0.00
0.27941176  0.00000000  0.27941176   0.00
0.28151262  0.00000000  0.28151262   0.00
0.28361344  0.00000000  0.28361344   0.00
0.28571430  0.00000000  0.28571430   0.00
0.28781512  0.00000000  0.28781512   0.00
0.28991598  0.00000000  0.28991598   0.00
0.29201680  0.00000000  0.29201680   0.00
0.29411763  0.00000000  0.29411763   0.00
0.29621848  0.00000000  0.29621848   0.00
0.29831931  0.00000000  0.29831931   0.00
0.30042017  0.00000000  0.30042017   0.00
0.30252099  0.00000000  0.30252099   0.00
0.30462185  0.00000000  0.30462185   0.00
0.30672267  0.00000000  0.30672267   0.00
0.30882353  0.00000000  0.30882353   0.00
0.31092438  0.00000000  0.31092438   0.00
0.31302521  0.00000000  0.31302521   0.00
0.31512606  0.00000000  0.31512606   0.00
0.31722689  0.00000000  0.31722689   0.00
0.31932774  0.00000000  0.31932774   0.00
0.32142857  0.00000000  0.32142857   0.00
0.32352942  0.00000000  0.32352942   0.00
0.32563025  0.00000000  0.32563025   0.00
0.32773110  0.00000000  0.32773110   0.00
0.32983193  0.00000000  0.32983193   0.00
0.33193278  0.00000000  0.33193278   0.00
0.33403361  0.00000000  0.33403361   0.00
0.33613443  0.00000000  0.33613443   0.00
0.33823529  0.00000000  0.33823529   0.00
0.34033611  0.00000000  0.34033611   0.00
0.34243697  0.00000000  0.34243697   0.00
0.34453779  0.00000000  0.34453779   0.00
0.34663865  0.00000000  0.34663865   0.00
0.34873948  0.00000000  0.34873948   0.00
0.35084033  0.00000000  0.35084033   0.00
0.35294119  0.00000000  0.35294119   0.00
0.35504201  0.00000000  0.35504201   0.00
0.35714287  0.00000000  0.35714287   0.00
0.35924369  0.00000000  0.35924369   0.00
0.36134455  0.00000000  0.36134455   0.00
0.36344540  0.00000000  0.36344540   0.00
0.36554620  0.00000000  0.36554620   0.00
0.36764705  0.00000000  0.36764705   0.00
0.36974791  0.00000000  0.36974791   0.00
0.37184876  0.00000000  0.37184876   0.00
0.37394956  0.00000000  0.37394956   0.00
0.37605041  0.00000000  0.37605041   0.00
0.37815127  0.00000000  0.37815127   0.00
0.38025212  0.00000000  0.38025212   0.00
0.38235292  0.00000000  0.38235292   0.00
0.38445377  0.00000000  0.38445377   0.00
0.38655463  0.00000000  0.38655463   0.00
0.38865545  0.00000000  0.38865545   0.00
0.39075628  0.00000000  0.39075628   0.00
0.39285713  0.00000000  0.39285713   0.00
0.39495799  0.00000000  0.39495799   0.00
0.39705881  0.00000000  0.39705881   0.00
0.39915967  0.00000000  0.39915967   0.00
0.40126052  0.00000000  0.40126052   0.00
0.40336135  0.00000000  0.40336135   0.00
0.40546218  0.00000000  0.40546218   0.00
0.40756303  0.00000000  0.40756303   0.00
0.40966389  0.00000000  0.40966389   0.00
0.41176468  0.00000000  0.41176468   0.00
0.41386554  0.00000000  0.41386554   0.00
0.41596639  0.00000000  0.41596639   0.00
0.41806725  0.00000000  0.41806725   0.00
0.42016804  0.00000000  0.42016804   0.00
0.42226890  0.00000000  0.42226890   0.00
0.42436975  0.00000000  0.42436975   0.00
0.42647058  0.00000000  0.42647058   0.00
0.42857140  0.00000000  0.42857140   0.00
0.43067226  0.00000000  0.43067226   0.00
0.43277311  0.00000000  0.43277311   0.00
0.43487394  0.00000000  0.43487394   0.00
0.43697479  0.00000000  0.43697479   0.00
0.43907562  0.00000000  0.43907562   0.00
0.44117647  0.00000000  0.44117647   0.00
0.44327730  0.00000000  0.44327730   0.00
0.44537815  0.00000000  0.44537815   0.00
0.44747901  0.00000000  0.44747901   0.00
0.44957981  0.00000000  0.44957981   0.00
0.45168066  0.00000000  0.45168066   0.00
0.45378152  0.00000000  0.45378152   0.00
0.45588237  0.00000000  0.45588237   0.00
0.45798317  0.00000000  0.45798317   0.00
0.46008402  0.00000000  0.46008402   0.00
0.46218488  0.00000000  0.46218488   0.00
0.46428573  0.00000000  0.46428573   0.00
0.46638653  0.00000000  0.46638653   0.00
0.46848738  0.00000000  0.46848738   0.00
0.47058824  0.00000000  0.47058824   0.00
0.47268906  0.00000000  0.47268906   0.00
0.47478992  0.00000000  0.47478992   0.00
0.47689074  0.00000000  0.47689074   0.00
0.47899160  0.00000000  0.47899160   0.00
0.48109242  0.00000000  0.48109242   0.00
0.48319328  0.00000000  0.48319328   0.00
0.48529413  0.00000000  0.48529413   0.00
0.48739496  0.00000000  0.48739496   0.00
0.48949578  0.00000000  0.48949578   0.00
0.49159664  0.00000000  0.49159664   0.00
0.49369749  0.00000000  0.49369749   0.00
0.49579829  0.00000000  0.49579829   0.00
0.49789914  0.00000000  0.49789914   0.00
0.50000000  0.00000000  0.50000000   0.00
