ADDGRID = .TRUE.
ALGO = Normal
EDIFF = 1.0e-08
ENCUT = 700
GGA = PS
ISIF = 2
ISMEAR = 0
LCHARG = .FALSE.
LREAL = .FALSE.
LWAVE = .FALSE.
NPAR = 8
NSW = 0
PREC = Accurate
SIGMA = 0.001
SYSTEM = MAPbI3-Cubic
ICORELEVEL = 1
LSORBIT = .TRUE.
