C N H Pb I
   1.0
    12.5768374277686394    0.0019159116494978    0.1381987933539664
     0.0011956322447466   12.4575380825249127   -0.0007464134870236
     0.1394107043392118    0.0000890449825412   12.7474206252920563
C   N   H  Pb   I
   8    8   48    8   24
Direct
  0.2003394953029833  0.2499222247099825  0.2237050322202723
  0.6936487695223127  0.2498943255186260  0.2341256764608216
  0.1936487695223128  0.7498943255186259  0.2341256764608216
  0.7003394953029831  0.7499222247099826  0.2237050322202723
  0.2003394953029832  0.2499222247099825  0.7237050322202722
  0.6936487695223128  0.2498943255186259  0.7341256764608216
  0.1936487695223127  0.7498943255186260  0.7341256764608216
  0.7003394953029832  0.7499222247099826  0.7237050322202722
  0.3054578318755667  0.2500142237635510  0.2741790096266161
  0.8036166059578682  0.2499930574696156  0.2735895833219911
  0.3036166059578682  0.7499930574696155  0.2735895833219911
  0.8054578318755665  0.7500142237635509  0.2741790096266161
  0.3054578318755666  0.2500142237635510  0.7741790096266161
  0.8036166059578681  0.2499930574696156  0.7735895833219911
  0.3036166059578682  0.7499930574696155  0.7735895833219910
  0.8054578318755664  0.7500142237635510  0.7741790096266161
  0.2129467970911648  0.2498206528432982  0.1379948459190639
  0.6972035373823414  0.2498215398047626  0.1477824059743644
  0.1972035373823416  0.7498215398047625  0.1477824059743644
  0.7129467970911648  0.7498206528432981  0.1379948459190639
  0.2129467970911648  0.2498206528432982  0.6379948459190640
  0.6972035373823413  0.2498215398047626  0.6477824059743643
  0.1972035373823416  0.7498215398047625  0.6477824059743643
  0.7129467970911646  0.7498206528432981  0.6379948459190640
  0.1564287725381563  0.3224042289559374  0.2482150845324276
  0.6522468408186907  0.3223001444248172  0.2628155539602070
  0.1522468408186907  0.8223001444248172  0.2628155539602071
  0.6564287725381563  0.8224042289559373  0.2482150845324276
  0.1564287725381563  0.3224042289559373  0.7482150845324277
  0.6522468408186906  0.3223001444248172  0.7628155539602071
  0.1522468408186907  0.8223001444248174  0.7628155539602071
  0.6564287725381562  0.8224042289559373  0.7482150845324277
  0.1565125618156396  0.1774680834150675  0.2483751382014433
  0.6523731054628275  0.1774840635352572  0.2629262752191820
  0.1523731054628275  0.6774840635352570  0.2629262752191820
  0.6565125618156394  0.6774680834150675  0.2483751382014433
  0.1565125618156396  0.1774680834150675  0.7483751382014432
  0.6523731054628275  0.1774840635352572  0.7629262752191821
  0.1523731054628275  0.6774840635352571  0.7629262752191821
  0.6565125618156394  0.6774680834150675  0.7483751382014432
  0.3501144443775110  0.3179858524302900  0.2532438589674452
  0.8461547103758980  0.3177627133841553  0.2482691229990327
  0.3461547103758981  0.8177627133841553  0.2482691229990326
  0.8501144443775109  0.8179858524302900  0.2532438589674452
  0.3501144443775111  0.3179858524302900  0.7532438589674452
  0.8461547103758977  0.3177627133841554  0.7482691229990327
  0.3461547103758981  0.8177627133841554  0.7482691229990327
  0.8501144443775109  0.8179858524302901  0.7532438589674452
  0.3501645409025784  0.1819981149496956  0.2534039947094484
  0.8462460596045002  0.1822116599929698  0.2483778049456789
  0.3462460596045004  0.6822116599929697  0.2483778049456789
  0.8501645409025783  0.6819981149496955  0.2534039947094483
  0.3501645409025784  0.1819981149496956  0.7534039947094484
  0.8462460596045002  0.1822116599929697  0.7483778049456787
  0.3462460596045005  0.6822116599929697  0.7483778049456787
  0.8501645409025784  0.6819981149496955  0.7534039947094484
  0.2994132560541117  0.2501224408641155  0.3557582891143431
  0.8069268898919161  0.2500646025748262  0.3554602002253213
  0.3069268898919162  0.7500646025748261  0.3554602002253213
  0.7994132560541117  0.7501224408641156  0.3557582891143431
  0.2994132560541117  0.2501224408641156  0.8557582891143430
  0.8069268898919161  0.2500646025748262  0.8554602002253215
  0.3069268898919162  0.7500646025748262  0.8554602002253215
  0.7994132560541116  0.7501224408641156  0.8557582891143430
  0.4724447086703298  0.5005353123989060  0.4888107198519929
  0.9724388432873929  0.4994442773309621  0.4888121741776150
  0.4724388432873931  0.9994442773309622  0.4888121741776150
  0.9724447086703296  0.0005353123989058  0.4888107198519929
  0.4724447086703298  0.5005353123989060  0.9888107198519930
  0.9724388432873931  0.4994442773309621  0.9888121741776151
  0.4724388432873931  0.9994442773309622  0.9888121741776150
  0.9724447086703296  0.0005353123989060  0.9888107198519930
  0.4547518033684136  0.5002815178969694  0.2375710131698798
  0.9547355452913879  0.4997005811276582  0.2375744707471097
  0.4547355452913881  0.9997005811276582  0.2375744707471097
  0.9547518033684136  0.0002815178969693  0.2375710131698798
  0.4547518033684137  0.5002815178969694  0.7375710131698798
  0.9547355452913878  0.4997005811276582  0.7375744707471098
  0.4547355452913880  0.9997005811276582  0.7375744707471098
  0.9547518033684137  0.0002815178969693  0.7375710131698797
  0.4601438525456307  0.2499769347279497  0.0098574436192848
  0.9391270265821595  0.2499810863631325  0.0138069918491340
  0.4391270265821596  0.7499810863631323  0.0138069918491340
  0.9601438525456308  0.7499769347279496  0.0098574436192848
  0.4601438525456308  0.2499769347279497  0.5098574436192848
  0.9391270265821595  0.2499810863631324  0.5138069918491340
  0.4391270265821596  0.7499810863631324  0.5138069918491340
  0.9601438525456308  0.7499769347279496  0.5098574436192848
  0.2161739750590892  0.4874549435442171  0.4612396999707535
  0.7161689018214861  0.5125399291733265  0.4612397037164592
  0.2161689018214862  0.0125399291733264  0.4612397037164591
  0.7161739750590891  0.9874549435442169  0.4612396999707535
  0.2161739750590891  0.4874549435442171  0.9612396999707535
  0.7161689018214862  0.5125399291733265  0.9612397037164592
  0.2161689018214862  0.0125399291733264  0.9612397037164593
  0.7161739750590892  0.9874549435442169  0.9612396999707534
