Cu2ZnSnS4 (LaFond 2014, 293 K)  
   5.4353000 
1.0 0.0 0.0
0.0 1.0 0.0
0.5 0.5 0.99777  
   Cu   Zn   Sn   S 
     2     1     1     4
Direct
  0.0000000000000000  0.0000000000000000  0.0000000000000000
  0.7500000000000000  0.2500000000000000  0.5000000000000000
  0.5000000000000000  0.5000000000000000  0.0000000000000000
  0.2500000000000000  0.7500000000000000  0.5000000000000000
  0.1177723448410691  0.1339010917405709  0.2435929961640395
  0.6386346589948915  0.6225059120953895  0.2435929961640395
  0.8660989082594290  0.3613653410051086  0.7564070038359604
  0.3774940879046175  0.8822276551589237  0.7564070038359604
