Automatically generated mesh: SCF=15,884,  0.005, 0,0,0.-0.423,0,0.423-0.423,0.5,0.423-0.423,0,0.423-0.846,0.0,0.0, 3.84x3
    899
Reciprocal lattice
    0.00000000000000    0.00000000000000    0.00000000000000             1
    0.16666666666667    0.00000000000000    0.00000000000000             8
    0.33333333333333    0.00000000000000    0.00000000000000             8
    0.50000000000000    0.00000000000000    0.00000000000000             4
    0.16666666666667    0.16666666666667    0.00000000000000             6
    0.33333333333333    0.16666666666667    0.00000000000000            24
    0.50000000000000    0.16666666666667    0.00000000000000            24
   -0.33333333333333    0.16666666666667    0.00000000000000            24
   -0.16666666666667    0.16666666666667    0.00000000000000            12
    0.33333333333333    0.33333333333333    0.00000000000000             6
    0.50000000000000    0.33333333333333    0.00000000000000            24
   -0.33333333333333    0.33333333333333    0.00000000000000            12
    0.50000000000000    0.50000000000000    0.00000000000000             3
    0.50000000000000    0.33333333333333    0.16666666666667            24
   -0.33333333333333    0.33333333333333    0.16666666666667            24
0.00000000  0.00000000  0.00000000   0.00
0.00175519  0.00000000  0.00175519   0.00
0.00351037  0.00000000  0.00351037   0.00
0.00526556  0.00000000  0.00526556   0.00
0.00702075  0.00000000  0.00702075   0.00
0.00877593  0.00000000  0.00877593   0.00
0.01053112  0.00000000  0.01053112   0.00
0.01228631  0.00000000  0.01228631   0.00
0.01404149  0.00000000  0.01404149   0.00
0.01579668  0.00000000  0.01579668   0.00
0.01755187  0.00000000  0.01755187   0.00
0.01930705  0.00000000  0.01930705   0.00
0.02106224  0.00000000  0.02106224   0.00
0.02281743  0.00000000  0.02281743   0.00
0.02457261  0.00000000  0.02457261   0.00
0.02632780  0.00000000  0.02632780   0.00
0.02808299  0.00000000  0.02808299   0.00
0.02983817  0.00000000  0.02983817   0.00
0.03159336  0.00000000  0.03159336   0.00
0.03334855  0.00000000  0.03334855   0.00
0.03510373  0.00000000  0.03510373   0.00
0.03685892  0.00000000  0.03685892   0.00
0.03861411  0.00000000  0.03861411   0.00
0.04036929  0.00000000  0.04036929   0.00
0.04212448  0.00000000  0.04212448   0.00
0.04387967  0.00000000  0.04387967   0.00
0.04563485  0.00000000  0.04563485   0.00
0.04739004  0.00000000  0.04739004   0.00
0.04914523  0.00000000  0.04914523   0.00
0.05090041  0.00000000  0.05090041   0.00
0.05265560  0.00000000  0.05265560   0.00
0.05441079  0.00000000  0.05441079   0.00
0.05616597  0.00000000  0.05616597   0.00
0.05792116  0.00000000  0.05792116   0.00
0.05967635  0.00000000  0.05967635   0.00
0.06143153  0.00000000  0.06143153   0.00
0.06318672  0.00000000  0.06318672   0.00
0.06494191  0.00000000  0.06494191   0.00
0.06669709  0.00000000  0.06669709   0.00
0.06845228  0.00000000  0.06845228   0.00
0.07020747  0.00000000  0.07020747   0.00
0.07196265  0.00000000  0.07196265   0.00
0.07371784  0.00000000  0.07371784   0.00
0.07547303  0.00000000  0.07547303   0.00
0.07722821  0.00000000  0.07722821   0.00
0.07898340  0.00000000  0.07898340   0.00
0.08073859  0.00000000  0.08073859   0.00
0.08249377  0.00000000  0.08249377   0.00
0.08424895  0.00000000  0.08424895   0.00
0.08600415  0.00000000  0.08600415   0.00
0.08775933  0.00000000  0.08775933   0.00
0.08951452  0.00000000  0.08951452   0.00
0.09126971  0.00000000  0.09126971   0.00
0.09302489  0.00000000  0.09302489   0.00
0.09478008  0.00000000  0.09478008   0.00
0.09653527  0.00000000  0.09653527   0.00
0.09829045  0.00000000  0.09829045   0.00
0.10004564  0.00000000  0.10004564   0.00
0.10180083  0.00000000  0.10180083   0.00
0.10355601  0.00000000  0.10355601   0.00
0.10531119  0.00000000  0.10531119   0.00
0.10706638  0.00000000  0.10706638   0.00
0.10882158  0.00000000  0.10882158   0.00
0.11057676  0.00000000  0.11057676   0.00
0.11233195  0.00000000  0.11233195   0.00
0.11408713  0.00000000  0.11408713   0.00
0.11584231  0.00000000  0.11584231   0.00
0.11759751  0.00000000  0.11759751   0.00
0.11935270  0.00000000  0.11935270   0.00
0.12110788  0.00000000  0.12110788   0.00
0.12286306  0.00000000  0.12286306   0.00
0.12461825  0.00000000  0.12461825   0.00
0.12637344  0.00000000  0.12637344   0.00
0.12812863  0.00000000  0.12812863   0.00
0.12988381  0.00000000  0.12988381   0.00
0.13163900  0.00000000  0.13163900   0.00
0.13339418  0.00000000  0.13339418   0.00
0.13514937  0.00000000  0.13514937   0.00
0.13690455  0.00000000  0.13690455   0.00
0.13865975  0.00000000  0.13865975   0.00
0.14041494  0.00000000  0.14041494   0.00
0.14217012  0.00000000  0.14217012   0.00
0.14392531  0.00000000  0.14392531   0.00
0.14568049  0.00000000  0.14568049   0.00
0.14743568  0.00000000  0.14743568   0.00
0.14919087  0.00000000  0.14919087   0.00
0.15094605  0.00000000  0.15094605   0.00
0.15270124  0.00000000  0.15270124   0.00
0.15445642  0.00000000  0.15445642   0.00
0.15621161  0.00000000  0.15621161   0.00
0.15796679  0.00000000  0.15796679   0.00
0.15972199  0.00000000  0.15972199   0.00
0.16147718  0.00000000  0.16147718   0.00
0.16323236  0.00000000  0.16323236   0.00
0.16498755  0.00000000  0.16498755   0.00
0.16674273  0.00000000  0.16674273   0.00
0.16849791  0.00000000  0.16849791   0.00
0.17025311  0.00000000  0.17025311   0.00
0.17200829  0.00000000  0.17200829   0.00
0.17376348  0.00000000  0.17376348   0.00
0.17551866  0.00000000  0.17551866   0.00
0.17727385  0.00000000  0.17727385   0.00
0.17902905  0.00000000  0.17902905   0.00
0.18078423  0.00000000  0.18078423   0.00
0.18253942  0.00000000  0.18253942   0.00
0.18429460  0.00000000  0.18429460   0.00
0.18604979  0.00000000  0.18604979   0.00
0.18780497  0.00000000  0.18780497   0.00
0.18956016  0.00000000  0.18956016   0.00
0.19131535  0.00000000  0.19131535   0.00
0.19307053  0.00000000  0.19307053   0.00
0.19482572  0.00000000  0.19482572   0.00
0.19658090  0.00000000  0.19658090   0.00
0.19833608  0.00000000  0.19833608   0.00
0.20009129  0.00000000  0.20009129   0.00
0.20184647  0.00000000  0.20184647   0.00
0.20360166  0.00000000  0.20360166   0.00
0.20535684  0.00000000  0.20535684   0.00
0.20711201  0.00000000  0.20711201   0.00
0.20886721  0.00000000  0.20886721   0.00
0.21062239  0.00000000  0.21062239   0.00
0.21237759  0.00000000  0.21237759   0.00
0.21413276  0.00000000  0.21413276   0.00
0.21588796  0.00000000  0.21588796   0.00
0.21764316  0.00000000  0.21764316   0.00
0.21939832  0.00000000  0.21939832   0.00
0.22115353  0.00000000  0.22115353   0.00
0.22290869  0.00000000  0.22290869   0.00
0.22466390  0.00000000  0.22466390   0.00
0.22641909  0.00000000  0.22641909   0.00
0.22817425  0.00000000  0.22817425   0.00
0.22992946  0.00000000  0.22992946   0.00
0.23168463  0.00000000  0.23168463   0.00
0.23343983  0.00000000  0.23343983   0.00
0.23519503  0.00000000  0.23519503   0.00
0.23695019  0.00000000  0.23695019   0.00
0.23870540  0.00000000  0.23870540   0.00
0.24046056  0.00000000  0.24046056   0.00
0.24221577  0.00000000  0.24221577   0.00
0.24397093  0.00000000  0.24397093   0.00
0.24572612  0.00000000  0.24572612   0.00
0.24748133  0.00000000  0.24748133   0.00
0.24923649  0.00000000  0.24923649   0.00
0.25099170  0.00000000  0.25099170   0.00
0.25274688  0.00000000  0.25274688   0.00
0.25450206  0.00000000  0.25450206   0.00
0.25625727  0.00000000  0.25625727   0.00
0.25801244  0.00000000  0.25801244   0.00
0.25976762  0.00000000  0.25976762   0.00
0.26152280  0.00000000  0.26152280   0.00
0.26327801  0.00000000  0.26327801   0.00
0.26503319  0.00000000  0.26503319   0.00
0.26678836  0.00000000  0.26678836   0.00
0.26854357  0.00000000  0.26854357   0.00
0.27029875  0.00000000  0.27029875   0.00
0.27205393  0.00000000  0.27205393   0.00
0.27380911  0.00000000  0.27380911   0.00
0.27556431  0.00000000  0.27556431   0.00
0.27731949  0.00000000  0.27731949   0.00
0.27907467  0.00000000  0.27907467   0.00
0.28082988  0.00000000  0.28082988   0.00
0.28258505  0.00000000  0.28258505   0.00
0.28434023  0.00000000  0.28434023   0.00
0.28609544  0.00000000  0.28609544   0.00
0.28785062  0.00000000  0.28785062   0.00
0.28960580  0.00000000  0.28960580   0.00
0.29136097  0.00000000  0.29136097   0.00
0.29311618  0.00000000  0.29311618   0.00
0.29487136  0.00000000  0.29487136   0.00
0.29662654  0.00000000  0.29662654   0.00
0.29838175  0.00000000  0.29838175   0.00
0.30013692  0.00000000  0.30013692   0.00
0.30189210  0.00000000  0.30189210   0.00
0.30364728  0.00000000  0.30364728   0.00
0.30540249  0.00000000  0.30540249   0.00
0.30715767  0.00000000  0.30715767   0.00
0.30891284  0.00000000  0.30891284   0.00
0.31066805  0.00000000  0.31066805   0.00
0.31242323  0.00000000  0.31242323   0.00
0.31417841  0.00000000  0.31417841   0.00
0.31593359  0.00000000  0.31593359   0.00
0.31768879  0.00000000  0.31768879   0.00
0.31944397  0.00000000  0.31944397   0.00
0.32119915  0.00000000  0.32119915   0.00
0.32295436  0.00000000  0.32295436   0.00
0.32470953  0.00000000  0.32470953   0.00
0.32646471  0.00000000  0.32646471   0.00
0.32821992  0.00000000  0.32821992   0.00
0.32997510  0.00000000  0.32997510   0.00
0.33173028  0.00000000  0.33173028   0.00
0.33348545  0.00000000  0.33348545   0.00
0.33524066  0.00000000  0.33524066   0.00
0.33699581  0.00000000  0.33699581   0.00
0.33875102  0.00000000  0.33875102   0.00
0.34050623  0.00000000  0.34050623   0.00
0.34226140  0.00000000  0.34226140   0.00
0.34401658  0.00000000  0.34401658   0.00
0.34577176  0.00000000  0.34577176   0.00
0.34752697  0.00000000  0.34752697   0.00
0.34928215  0.00000000  0.34928215   0.00
0.35103732  0.00000000  0.35103732   0.00
0.35279253  0.00000000  0.35279253   0.00
0.35454771  0.00000000  0.35454771   0.00
0.35630289  0.00000000  0.35630289   0.00
0.35805809  0.00000000  0.35805809   0.00
0.35981327  0.00000000  0.35981327   0.00
0.36156845  0.00000000  0.36156845   0.00
0.36332363  0.00000000  0.36332363   0.00
0.36507884  0.00000000  0.36507884   0.00
0.36683398  0.00000000  0.36683398   0.00
0.36858919  0.00000000  0.36858919   0.00
0.37034440  0.00000000  0.37034440   0.00
0.37209958  0.00000000  0.37209958   0.00
0.37385476  0.00000000  0.37385476   0.00
0.37560993  0.00000000  0.37560993   0.00
0.37736514  0.00000000  0.37736514   0.00
0.37912032  0.00000000  0.37912032   0.00
0.38087550  0.00000000  0.38087550   0.00
0.38263071  0.00000000  0.38263071   0.00
0.38438585  0.00000000  0.38438585   0.00
0.38614106  0.00000000  0.38614106   0.00
0.38789624  0.00000000  0.38789624   0.00
0.38965145  0.00000000  0.38965145   0.00
0.39140663  0.00000000  0.39140663   0.00
0.39316180  0.00000000  0.39316180   0.00
0.39491701  0.00000000  0.39491701   0.00
0.39667216  0.00000000  0.39667216   0.00
0.39842737  0.00000000  0.39842737   0.00
0.40018257  0.00000000  0.40018257   0.00
0.40193775  0.00000000  0.40193775   0.00
0.40369293  0.00000000  0.40369293   0.00
0.40544811  0.00000000  0.40544811   0.00
0.40720332  0.00000000  0.40720332   0.00
0.40895849  0.00000000  0.40895849   0.00
0.41071367  0.00000000  0.41071367   0.00
0.41246888  0.00000000  0.41246888   0.00
0.41422403  0.00000000  0.41422403   0.00
0.41597924  0.00000000  0.41597924   0.00
0.41773441  0.00000000  0.41773441   0.00
0.41948962  0.00000000  0.41948962   0.00
0.42124477  0.00000000  0.42124477   0.00
0.42300001  0.00000000  0.42300001   0.00
0.42300001  0.00248756  0.42300001   0.00
0.42300001  0.00497512  0.42300001   0.00
0.42300001  0.00746269  0.42300001   0.00
0.42300001  0.00995025  0.42300001   0.00
0.42300001  0.01243781  0.42300001   0.00
0.42300001  0.01492537  0.42300001   0.00
0.42300001  0.01741293  0.42300001   0.00
0.42300001  0.01990050  0.42300001   0.00
0.42300001  0.02238806  0.42300001   0.00
0.42300001  0.02487562  0.42300001   0.00
0.42300001  0.02736318  0.42300001   0.00
0.42300001  0.02985075  0.42300001   0.00
0.42300001  0.03233831  0.42300001   0.00
0.42300001  0.03482587  0.42300001   0.00
0.42300001  0.03731343  0.42300001   0.00
0.42300001  0.03980099  0.42300001   0.00
0.42300001  0.04228856  0.42300001   0.00
0.42300001  0.04477612  0.42300001   0.00
0.42300001  0.04726368  0.42300001   0.00
0.42300001  0.04975124  0.42300001   0.00
0.42300001  0.05223880  0.42300001   0.00
0.42300001  0.05472637  0.42300001   0.00
0.42300001  0.05721393  0.42300001   0.00
0.42300001  0.05970149  0.42300001   0.00
0.42300001  0.06218905  0.42300001   0.00
0.42300001  0.06467661  0.42300001   0.00
0.42300001  0.06716418  0.42300001   0.00
0.42300001  0.06965174  0.42300001   0.00
0.42300001  0.07213930  0.42300001   0.00
0.42300001  0.07462686  0.42300001   0.00
0.42300001  0.07711443  0.42300001   0.00
0.42300001  0.07960199  0.42300001   0.00
0.42300001  0.08208955  0.42300001   0.00
0.42300001  0.08457711  0.42300001   0.00
0.42300001  0.08706468  0.42300001   0.00
0.42300001  0.08955224  0.42300001   0.00
0.42300001  0.09203980  0.42300001   0.00
0.42300001  0.09452736  0.42300001   0.00
0.42300001  0.09701493  0.42300001   0.00
0.42300001  0.09950249  0.42300001   0.00
0.42300001  0.10199004  0.42300001   0.00
0.42300001  0.10447761  0.42300001   0.00
0.42300001  0.10696517  0.42300001   0.00
0.42300001  0.10945273  0.42300001   0.00
0.42300001  0.11194029  0.42300001   0.00
0.42300001  0.11442786  0.42300001   0.00
0.42300001  0.11691542  0.42300001   0.00
0.42300001  0.11940298  0.42300001   0.00
0.42300001  0.12189054  0.42300001   0.00
0.42300001  0.12437811  0.42300001   0.00
0.42300001  0.12686567  0.42300001   0.00
0.42300001  0.12935323  0.42300001   0.00
0.42300001  0.13184080  0.42300001   0.00
0.42300001  0.13432835  0.42300001   0.00
0.42300001  0.13681592  0.42300001   0.00
0.42300001  0.13930348  0.42300001   0.00
0.42300001  0.14179105  0.42300001   0.00
0.42300001  0.14427860  0.42300001   0.00
0.42300001  0.14676617  0.42300001   0.00
0.42300001  0.14925373  0.42300001   0.00
0.42300001  0.15174130  0.42300001   0.00
0.42300001  0.15422885  0.42300001   0.00
0.42300001  0.15671642  0.42300001   0.00
0.42300001  0.15920398  0.42300001   0.00
0.42300001  0.16169153  0.42300001   0.00
0.42300001  0.16417910  0.42300001   0.00
0.42300001  0.16666666  0.42300001   0.00
0.42300001  0.16915423  0.42300001   0.00
0.42300001  0.17164178  0.42300001   0.00
0.42300001  0.17412935  0.42300001   0.00
0.42300001  0.17661691  0.42300001   0.00
0.42300001  0.17910448  0.42300001   0.00
0.42300001  0.18159203  0.42300001   0.00
0.42300001  0.18407960  0.42300001   0.00
0.42300001  0.18656716  0.42300001   0.00
0.42300001  0.18905473  0.42300001   0.00
0.42300001  0.19154228  0.42300001   0.00
0.42300001  0.19402985  0.42300001   0.00
0.42300001  0.19651741  0.42300001   0.00
0.42300001  0.19900498  0.42300001   0.00
0.42300001  0.20149253  0.42300001   0.00
0.42300001  0.20398009  0.42300001   0.00
0.42300001  0.20646766  0.42300001   0.00
0.42300001  0.20895521  0.42300001   0.00
0.42300001  0.21144278  0.42300001   0.00
0.42300001  0.21393034  0.42300001   0.00
0.42300001  0.21641791  0.42300001   0.00
0.42300001  0.21890546  0.42300001   0.00
0.42300001  0.22139303  0.42300001   0.00
0.42300001  0.22388059  0.42300001   0.00
0.42300001  0.22636816  0.42300001   0.00
0.42300001  0.22885571  0.42300001   0.00
0.42300001  0.23134328  0.42300001   0.00
0.42300001  0.23383084  0.42300001   0.00
0.42300001  0.23631841  0.42300001   0.00
0.42300001  0.23880596  0.42300001   0.00
0.42300001  0.24129352  0.42300001   0.00
0.42300001  0.24378109  0.42300001   0.00
0.42300001  0.24626864  0.42300001   0.00
0.42300001  0.24875621  0.42300001   0.00
0.42300001  0.25124377  0.42300001   0.00
0.42300001  0.25373134  0.42300001   0.00
0.42300001  0.25621891  0.42300001   0.00
0.42300001  0.25870645  0.42300001   0.00
0.42300001  0.26119402  0.42300001   0.00
0.42300001  0.26368159  0.42300001   0.00
0.42300001  0.26616916  0.42300001   0.00
0.42300001  0.26865670  0.42300001   0.00
0.42300001  0.27114427  0.42300001   0.00
0.42300001  0.27363184  0.42300001   0.00
0.42300001  0.27611941  0.42300001   0.00
0.42300001  0.27860695  0.42300001   0.00
0.42300001  0.28109452  0.42300001   0.00
0.42300001  0.28358209  0.42300001   0.00
0.42300001  0.28606963  0.42300001   0.00
0.42300001  0.28855720  0.42300001   0.00
0.42300001  0.29104477  0.42300001   0.00
0.42300001  0.29353234  0.42300001   0.00
0.42300001  0.29601988  0.42300001   0.00
0.42300001  0.29850745  0.42300001   0.00
0.42300001  0.30099502  0.42300001   0.00
0.42300001  0.30348259  0.42300001   0.00
0.42300001  0.30597013  0.42300001   0.00
0.42300001  0.30845770  0.42300001   0.00
0.42300001  0.31094527  0.42300001   0.00
0.42300001  0.31343284  0.42300001   0.00
0.42300001  0.31592038  0.42300001   0.00
0.42300001  0.31840795  0.42300001   0.00
0.42300001  0.32089552  0.42300001   0.00
0.42300001  0.32338306  0.42300001   0.00
0.42300001  0.32587063  0.42300001   0.00
0.42300001  0.32835820  0.42300001   0.00
0.42300001  0.33084577  0.42300001   0.00
0.42300001  0.33333331  0.42300001   0.00
0.42300001  0.33582088  0.42300001   0.00
0.42300001  0.33830845  0.42300001   0.00
0.42300001  0.34079602  0.42300001   0.00
0.42300001  0.34328356  0.42300001   0.00
0.42300001  0.34577113  0.42300001   0.00
0.42300001  0.34825870  0.42300001   0.00
0.42300001  0.35074627  0.42300001   0.00
0.42300001  0.35323381  0.42300001   0.00
0.42300001  0.35572138  0.42300001   0.00
0.42300001  0.35820895  0.42300001   0.00
0.42300001  0.36069649  0.42300001   0.00
0.42300001  0.36318406  0.42300001   0.00
0.42300001  0.36567163  0.42300001   0.00
0.42300001  0.36815920  0.42300001   0.00
0.42300001  0.37064674  0.42300001   0.00
0.42300001  0.37313432  0.42300001   0.00
0.42300001  0.37562189  0.42300001   0.00
0.42300001  0.37810946  0.42300001   0.00
0.42300001  0.38059700  0.42300001   0.00
0.42300001  0.38308457  0.42300001   0.00
0.42300001  0.38557214  0.42300001   0.00
0.42300001  0.38805971  0.42300001   0.00
0.42300001  0.39054725  0.42300001   0.00
0.42300001  0.39303482  0.42300001   0.00
0.42300001  0.39552239  0.42300001   0.00
0.42300001  0.39800996  0.42300001   0.00
0.42300001  0.40049750  0.42300001   0.00
0.42300001  0.40298507  0.42300001   0.00
0.42300001  0.40547264  0.42300001   0.00
0.42300001  0.40796018  0.42300001   0.00
0.42300001  0.41044775  0.42300001   0.00
0.42300001  0.41293532  0.42300001   0.00
0.42300001  0.41542289  0.42300001   0.00
0.42300001  0.41791043  0.42300001   0.00
0.42300001  0.42039800  0.42300001   0.00
0.42300001  0.42288557  0.42300001   0.00
0.42300001  0.42537314  0.42300001   0.00
0.42300001  0.42786068  0.42300001   0.00
0.42300001  0.43034825  0.42300001   0.00
0.42300001  0.43283582  0.42300001   0.00
0.42300001  0.43532339  0.42300001   0.00
0.42300001  0.43781093  0.42300001   0.00
0.42300001  0.44029850  0.42300001   0.00
0.42300001  0.44278607  0.42300001   0.00
0.42300001  0.44527361  0.42300001   0.00
0.42300001  0.44776118  0.42300001   0.00
0.42300001  0.45024875  0.42300001   0.00
0.42300001  0.45273632  0.42300001   0.00
0.42300001  0.45522386  0.42300001   0.00
0.42300001  0.45771143  0.42300001   0.00
0.42300001  0.46019900  0.42300001   0.00
0.42300001  0.46268657  0.42300001   0.00
0.42300001  0.46517411  0.42300001   0.00
0.42300001  0.46766168  0.42300001   0.00
0.42300001  0.47014925  0.42300001   0.00
0.42300001  0.47263682  0.42300001   0.00
0.42300001  0.47512436  0.42300001   0.00
0.42300001  0.47761193  0.42300001   0.00
0.42300001  0.48009950  0.42300001   0.00
0.42300001  0.48258704  0.42300001   0.00
0.42300001  0.48507461  0.42300001   0.00
0.42300001  0.48756218  0.42300001   0.00
0.42300001  0.49004975  0.42300001   0.00
0.42300001  0.49253729  0.42300001   0.00
0.42300001  0.49502486  0.42300001   0.00
0.42300001  0.49751243  0.42300001   0.00
0.42300001  0.50000000  0.42300001   0.00
0.42300001  0.49751243  0.42300001   0.00
0.42300001  0.49502489  0.42300001   0.00
0.42300001  0.49253732  0.42300001   0.00
0.42300001  0.49004975  0.42300001   0.00
0.42300001  0.48756218  0.42300001   0.00
0.42300001  0.48507464  0.42300001   0.00
0.42300001  0.48258707  0.42300001   0.00
0.42300001  0.48009950  0.42300001   0.00
0.42300001  0.47761193  0.42300001   0.00
0.42300001  0.47512439  0.42300001   0.00
0.42300001  0.47263682  0.42300001   0.00
0.42300001  0.47014925  0.42300001   0.00
0.42300001  0.46766168  0.42300001   0.00
0.42300001  0.46517414  0.42300001   0.00
0.42300001  0.46268657  0.42300001   0.00
0.42300001  0.46019900  0.42300001   0.00
0.42300001  0.45771146  0.42300001   0.00
0.42300001  0.45522389  0.42300001   0.00
0.42300001  0.45273632  0.42300001   0.00
0.42300001  0.45024875  0.42300001   0.00
0.42300001  0.44776121  0.42300001   0.00
0.42300001  0.44527364  0.42300001   0.00
0.42300001  0.44278607  0.42300001   0.00
0.42300001  0.44029850  0.42300001   0.00
0.42300001  0.43781096  0.42300001   0.00
0.42300001  0.43532339  0.42300001   0.00
0.42300001  0.43283582  0.42300001   0.00
0.42300001  0.43034828  0.42300001   0.00
0.42300001  0.42786071  0.42300001   0.00
0.42300001  0.42537314  0.42300001   0.00
0.42300001  0.42288557  0.42300001   0.00
0.42300001  0.42039800  0.42300001   0.00
0.42300001  0.41791046  0.42300001   0.00
0.42300001  0.41542289  0.42300001   0.00
0.42300001  0.41293532  0.42300001   0.00
0.42300001  0.41044778  0.42300001   0.00
0.42300001  0.40796021  0.42300001   0.00
0.42300001  0.40547264  0.42300001   0.00
0.42300001  0.40298507  0.42300001   0.00
0.42300001  0.40049750  0.42300001   0.00
0.42300001  0.39800996  0.42300001   0.00
0.42300001  0.39552239  0.42300001   0.00
0.42300001  0.39303482  0.42300001   0.00
0.42300001  0.39054728  0.42300001   0.00
0.42300001  0.38805971  0.42300001   0.00
0.42300001  0.38557214  0.42300001   0.00
0.42300001  0.38308460  0.42300001   0.00
0.42300001  0.38059703  0.42300001   0.00
0.42300001  0.37810946  0.42300001   0.00
0.42300001  0.37562189  0.42300001   0.00
0.42300001  0.37313432  0.42300001   0.00
0.42300001  0.37064677  0.42300001   0.00
0.42300001  0.36815920  0.42300001   0.00
0.42300001  0.36567163  0.42300001   0.00
0.42300001  0.36318409  0.42300001   0.00
0.42300001  0.36069652  0.42300001   0.00
0.42300001  0.35820895  0.42300001   0.00
0.42300001  0.35572141  0.42300001   0.00
0.42300001  0.35323381  0.42300001   0.00
0.42300001  0.35074627  0.42300001   0.00
0.42300001  0.34825870  0.42300001   0.00
0.42300001  0.34577113  0.42300001   0.00
0.42300001  0.34328359  0.42300001   0.00
0.42300001  0.34079602  0.42300001   0.00
0.42300001  0.33830845  0.42300001   0.00
0.42300001  0.33582091  0.42300001   0.00
0.42300001  0.33333334  0.42300001   0.00
0.42300001  0.33084577  0.42300001   0.00
0.42300001  0.32835823  0.42300001   0.00
0.42300001  0.32587063  0.42300001   0.00
0.42300001  0.32338309  0.42300001   0.00
0.42300001  0.32089552  0.42300001   0.00
0.42300001  0.31840795  0.42300001   0.00
0.42300001  0.31592041  0.42300001   0.00
0.42300001  0.31343284  0.42300001   0.00
0.42300001  0.31094527  0.42300001   0.00
0.42300001  0.30845773  0.42300001   0.00
0.42300001  0.30597013  0.42300001   0.00
0.42300001  0.30348259  0.42300001   0.00
0.42300001  0.30099502  0.42300001   0.00
0.42300001  0.29850745  0.42300001   0.00
0.42300001  0.29601991  0.42300001   0.00
0.42300001  0.29353234  0.42300001   0.00
0.42300001  0.29104477  0.42300001   0.00
0.42300001  0.28855723  0.42300001   0.00
0.42300001  0.28606966  0.42300001   0.00
0.42300001  0.28358209  0.42300001   0.00
0.42300001  0.28109455  0.42300001   0.00
0.42300001  0.27860695  0.42300001   0.00
0.42300001  0.27611941  0.42300001   0.00
0.42300001  0.27363184  0.42300001   0.00
0.42300001  0.27114427  0.42300001   0.00
0.42300001  0.26865673  0.42300001   0.00
0.42300001  0.26616916  0.42300001   0.00
0.42300001  0.26368159  0.42300001   0.00
0.42300001  0.26119405  0.42300001   0.00
0.42300001  0.25870648  0.42300001   0.00
0.42300001  0.25621891  0.42300001   0.00
0.42300001  0.25373137  0.42300001   0.00
0.42300001  0.25124377  0.42300001   0.00
0.42300001  0.24875623  0.42300001   0.00
0.42300001  0.24626866  0.42300001   0.00
0.42300001  0.24378109  0.42300001   0.00
0.42300001  0.24129355  0.42300001   0.00
0.42300001  0.23880598  0.42300001   0.00
0.42300001  0.23631841  0.42300001   0.00
0.42300001  0.23383084  0.42300001   0.00
0.42300001  0.23134330  0.42300001   0.00
0.42300001  0.22885573  0.42300001   0.00
0.42300001  0.22636816  0.42300001   0.00
0.42300001  0.22388059  0.42300001   0.00
0.42300001  0.22139305  0.42300001   0.00
0.42300001  0.21890548  0.42300001   0.00
0.42300001  0.21641791  0.42300001   0.00
0.42300001  0.21393037  0.42300001   0.00
0.42300001  0.21144280  0.42300001   0.00
0.42300001  0.20895523  0.42300001   0.00
0.42300001  0.20646766  0.42300001   0.00
0.42300001  0.20398012  0.42300001   0.00
0.42300001  0.20149255  0.42300001   0.00
0.42300001  0.19900498  0.42300001   0.00
0.42300001  0.19651741  0.42300001   0.00
0.42300001  0.19402987  0.42300001   0.00
0.42300001  0.19154230  0.42300001   0.00
0.42300001  0.18905473  0.42300001   0.00
0.42300001  0.18656716  0.42300001   0.00
0.42300001  0.18407962  0.42300001   0.00
0.42300001  0.18159205  0.42300001   0.00
0.42300001  0.17910448  0.42300001   0.00
0.42300001  0.17661694  0.42300001   0.00
0.42300001  0.17412937  0.42300001   0.00
0.42300001  0.17164180  0.42300001   0.00
0.42300001  0.16915423  0.42300001   0.00
0.42300001  0.16666669  0.42300001   0.00
0.42300001  0.16417912  0.42300001   0.00
0.42300001  0.16169155  0.42300001   0.00
0.42300001  0.15920398  0.42300001   0.00
0.42300001  0.15671644  0.42300001   0.00
0.42300001  0.15422887  0.42300001   0.00
0.42300001  0.15174130  0.42300001   0.00
0.42300001  0.14925373  0.42300001   0.00
0.42300001  0.14676619  0.42300001   0.00
0.42300001  0.14427862  0.42300001   0.00
0.42300001  0.14179105  0.42300001   0.00
0.42300001  0.13930351  0.42300001   0.00
0.42300001  0.13681594  0.42300001   0.00
0.42300001  0.13432837  0.42300001   0.00
0.42300001  0.13184080  0.42300001   0.00
0.42300001  0.12935326  0.42300001   0.00
0.42300001  0.12686568  0.42300001   0.00
0.42300001  0.12437811  0.42300001   0.00
0.42300001  0.12189054  0.42300001   0.00
0.42300001  0.11940300  0.42300001   0.00
0.42300001  0.11691543  0.42300001   0.00
0.42300001  0.11442786  0.42300001   0.00
0.42300001  0.11194029  0.42300001   0.00
0.42300001  0.10945275  0.42300001   0.00
0.42300001  0.10696518  0.42300001   0.00
0.42300001  0.10447761  0.42300001   0.00
0.42300001  0.10199004  0.42300001   0.00
0.42300001  0.09950250  0.42300001   0.00
0.42300001  0.09701493  0.42300001   0.00
0.42300001  0.09452736  0.42300001   0.00
0.42300001  0.09203982  0.42300001   0.00
0.42300001  0.08955225  0.42300001   0.00
0.42300001  0.08706468  0.42300001   0.00
0.42300001  0.08457711  0.42300001   0.00
0.42300001  0.08208957  0.42300001   0.00
0.42300001  0.07960200  0.42300001   0.00
0.42300001  0.07711443  0.42300001   0.00
0.42300001  0.07462686  0.42300001   0.00
0.42300001  0.07213932  0.42300001   0.00
0.42300001  0.06965175  0.42300001   0.00
0.42300001  0.06716418  0.42300001   0.00
0.42300001  0.06467661  0.42300001   0.00
0.42300001  0.06218907  0.42300001   0.00
0.42300001  0.05970150  0.42300001   0.00
0.42300001  0.05721393  0.42300001   0.00
0.42300001  0.05472639  0.42300001   0.00
0.42300001  0.05223882  0.42300001   0.00
0.42300001  0.04975125  0.42300001   0.00
0.42300001  0.04726368  0.42300001   0.00
0.42300001  0.04477614  0.42300001   0.00
0.42300001  0.04228857  0.42300001   0.00
0.42300001  0.03980100  0.42300001   0.00
0.42300001  0.03731343  0.42300001   0.00
0.42300001  0.03482589  0.42300001   0.00
0.42300001  0.03233832  0.42300001   0.00
0.42300001  0.02985075  0.42300001   0.00
0.42300001  0.02736318  0.42300001   0.00
0.42300001  0.02487564  0.42300001   0.00
0.42300001  0.02238807  0.42300001   0.00
0.42300001  0.01990050  0.42300001   0.00
0.42300001  0.01741296  0.42300001   0.00
0.42300001  0.01492539  0.42300001   0.00
0.42300001  0.01243782  0.42300001   0.00
0.42300001  0.00995025  0.42300001   0.00
0.42300001  0.00746271  0.42300001   0.00
0.42300001  0.00497514  0.42300001   0.00
0.42300001  0.00248757  0.42300001   0.00
0.42300001  0.00000000  0.42300001   0.00
0.42475519  0.00000000  0.42124480   0.00
0.42651036  0.00000000  0.41948962   0.00
0.42826557  0.00000000  0.41773444   0.00
0.43002075  0.00000000  0.41597927   0.00
0.43177593  0.00000000  0.41422406   0.00
0.43353111  0.00000000  0.41246888   0.00
0.43528631  0.00000000  0.41071370   0.00
0.43704149  0.00000000  0.40895849   0.00
0.43879667  0.00000000  0.40720332   0.00
0.44055188  0.00000000  0.40544814   0.00
0.44230705  0.00000000  0.40369296   0.00
0.44406223  0.00000000  0.40193775   0.00
0.44581744  0.00000000  0.40018257   0.00
0.44757262  0.00000000  0.39842740   0.00
0.44932780  0.00000000  0.39667219   0.00
0.45108297  0.00000000  0.39491701   0.00
0.45283818  0.00000000  0.39316183   0.00
0.45459336  0.00000000  0.39140663   0.00
0.45634854  0.00000000  0.38965145   0.00
0.45810375  0.00000000  0.38789627   0.00
0.45985892  0.00000000  0.38614109   0.00
0.46161410  0.00000000  0.38438588   0.00
0.46336928  0.00000000  0.38263071   0.00
0.46512449  0.00000000  0.38087553   0.00
0.46687967  0.00000000  0.37912032   0.00
0.46863484  0.00000000  0.37736514   0.00
0.47039005  0.00000000  0.37560996   0.00
0.47214523  0.00000000  0.37385479   0.00
0.47390041  0.00000000  0.37209958   0.00
0.47565559  0.00000000  0.37034440   0.00
0.47741079  0.00000000  0.36858922   0.00
0.47916597  0.00000000  0.36683401   0.00
0.48092115  0.00000000  0.36507884   0.00
0.48267636  0.00000000  0.36332366   0.00
0.48443154  0.00000000  0.36156848   0.00
0.48618671  0.00000000  0.35981327   0.00
0.48794189  0.00000000  0.35805809   0.00
0.48969710  0.00000000  0.35630292   0.00
0.49145228  0.00000000  0.35454771   0.00