C N H Pb I
   1.0
    12.5768374277686394    0.0019159116494978    0.1381987933539664
     0.0011956322447466   12.4575380825249127   -0.0007464134870236
     0.1394107043392118    0.0000890449825412   12.7474206252920563
C   N   H  Pb   I
   8    8   48    8   24
Direct
  0.1969941324126480  0.2499082751143042  0.2289153543405469
  0.6969941324126480  0.2499082751143042  0.2289153543405469
  0.1969941324126480  0.7499082751143042  0.2289153543405469
  0.6969941324126478  0.7499082751143042  0.2289153543405469
  0.1969941324126480  0.2499082751143042  0.7289153543405469
  0.6969941324126480  0.2499082751143042  0.7289153543405469
  0.1969941324126480  0.7499082751143042  0.7289153543405469
  0.6969941324126480  0.7499082751143042  0.7289153543405469
  0.3045372189167174  0.2500036406165833  0.2738842964743036
  0.8045372189167175  0.2500036406165833  0.2738842964743036
  0.3045372189167174  0.7500036406165832  0.2738842964743036
  0.8045372189167174  0.7500036406165834  0.2738842964743036
  0.3045372189167174  0.2500036406165833  0.7738842964743036
  0.8045372189167174  0.2500036406165833  0.7738842964743036
  0.3045372189167174  0.7500036406165832  0.7738842964743036
  0.8045372189167173  0.7500036406165833  0.7738842964743035
  0.2050751672367532  0.2498210963240304  0.1428886259467141
  0.7050751672367530  0.2498210963240304  0.1428886259467141
  0.2050751672367532  0.7498210963240304  0.1428886259467141
  0.7050751672367531  0.7498210963240303  0.1428886259467141
  0.2050751672367532  0.2498210963240304  0.6428886259467140
  0.7050751672367531  0.2498210963240304  0.6428886259467143
  0.2050751672367532  0.7498210963240303  0.6428886259467143
  0.7050751672367531  0.7498210963240304  0.6428886259467141
  0.1543378066784235  0.3223521866903774  0.2555153192463174
  0.6543378066784235  0.3223521866903773  0.2555153192463173
  0.1543378066784235  0.8223521866903774  0.2555153192463174
  0.6543378066784235  0.8223521866903774  0.2555153192463173
  0.1543378066784235  0.3223521866903773  0.7555153192463173
  0.6543378066784235  0.3223521866903773  0.7555153192463172
  0.1543378066784235  0.8223521866903774  0.7555153192463172
  0.6543378066784235  0.8223521866903774  0.7555153192463174
  0.1544428336392336  0.1774760734751623  0.2556507067103126
  0.6544428336392334  0.1774760734751623  0.2556507067103126
  0.1544428336392336  0.6774760734751623  0.2556507067103126
  0.6544428336392334  0.6774760734751623  0.2556507067103127
  0.1544428336392336  0.1774760734751624  0.7556507067103126
  0.6544428336392335  0.1774760734751623  0.7556507067103126
  0.1544428336392336  0.6774760734751623  0.7556507067103125
  0.6544428336392334  0.6774760734751623  0.7556507067103128
  0.3481345773767046  0.3178742829072227  0.2507564909832390
  0.8481345773767045  0.3178742829072227  0.2507564909832389
  0.3481345773767046  0.8178742829072226  0.2507564909832389
  0.8481345773767045  0.8178742829072227  0.2507564909832389
  0.3481345773767046  0.3178742829072227  0.7507564909832389
  0.8481345773767043  0.3178742829072227  0.7507564909832389
  0.3481345773767046  0.8178742829072225  0.7507564909832389
  0.8481345773767045  0.8178742829072227  0.7507564909832389
  0.3482053002535394  0.1821048874713327  0.2508908998275636
  0.8482053002535392  0.1821048874713327  0.2508908998275636
  0.3482053002535395  0.6821048874713327  0.2508908998275636
  0.8482053002535392  0.6821048874713327  0.2508908998275636
  0.3482053002535395  0.1821048874713327  0.7508908998275636
  0.8482053002535392  0.1821048874713327  0.7508908998275635
  0.3482053002535394  0.6821048874713327  0.7508908998275635
  0.8482053002535394  0.6821048874713327  0.7508908998275636
  0.3031700729730140  0.2500935217194708  0.3556092446698322
  0.8031700729730139  0.2500935217194708  0.3556092446698322
  0.3031700729730140  0.7500935217194709  0.3556092446698322
  0.8031700729730138  0.7500935217194709  0.3556092446698322
  0.3031700729730140  0.2500935217194708  0.8556092446698321
  0.8031700729730139  0.2500935217194708  0.8556092446698323
  0.3031700729730140  0.7500935217194709  0.8556092446698323
  0.8031700729730138  0.7500935217194709  0.8556092446698322
  0.4724417759788614  0.4999897948649340  0.4888114470148039
  0.9724417759788613  0.4999897948649341  0.4888114470148039
  0.4724417759788615  0.9999897948649341  0.4888114470148040
  0.9724417759788612  0.9999897948649340  0.4888114470148039
  0.4724417759788614  0.4999897948649340  0.9888114470148041
  0.9724417759788613  0.4999897948649341  0.9888114470148039
  0.4724417759788614  0.9999897948649340  0.9888114470148039
  0.9724417759788613  0.9999897948649341  0.9888114470148041
  0.4547436743299009  0.4999910495123138  0.2375727419584948
  0.9547436743299007  0.4999910495123138  0.2375727419584948
  0.4547436743299009  0.9999910495123139  0.2375727419584948
  0.9547436743299007  0.9999910495123138  0.2375727419584948
  0.4547436743299009  0.4999910495123138  0.7375727419584946
  0.9547436743299007  0.4999910495123138  0.7375727419584948
  0.4547436743299008  0.9999910495123138  0.7375727419584948
  0.9547436743299008  0.9999910495123138  0.7375727419584948
  0.4496354395638951  0.2499790105455410  0.0118322177342094
  0.9496354395638952  0.2499790105455411  0.0118322177342094
  0.4496354395638952  0.7499790105455409  0.0118322177342094
  0.9496354395638951  0.7499790105455409  0.0118322177342094
  0.4496354395638952  0.2499790105455410  0.5118322177342094
  0.9496354395638952  0.2499790105455410  0.5118322177342094
  0.4496354395638952  0.7499790105455411  0.5118322177342094
  0.9496354395638951  0.7499790105455409  0.5118322177342094
  0.2161714384402877  0.4999974363587718  0.4612397018436063
  0.7161714384402875  0.4999974363587718  0.4612397018436063
  0.2161714384402877  0.9999974363587716  0.4612397018436063
  0.7161714384402876  0.9999974363587717  0.4612397018436064
  0.2161714384402877  0.4999974363587718  0.9612397018436064
  0.7161714384402876  0.4999974363587718  0.9612397018436063
  0.2161714384402877  0.9999974363587716  0.9612397018436064
  0.7161714384402876  0.9999974363587715  0.9612397018436063
