C N H Pb I
   1.0
    12.5768374277686394    0.0019159116494978    0.1381987933539664
     0.0011956322447466   12.4575380825249127   -0.0007464134870236
     0.1394107043392118    0.0000890449825412   12.7474206252920563
C   N   H  Pb   I
   8    8   48    8   24
Direct
  0.2025697372298734  0.2499315244404347  0.2202314841400892
  0.6914185275954227  0.2498850257881737  0.2375992245410046
  0.1914185275954226  0.7498850257881738  0.2375992245410047
  0.7025697372298733  0.7499315244404348  0.2202314841400892
  0.2025697372298734  0.2499315244404347  0.7202314841400891
  0.6914185275954225  0.2498850257881738  0.7375992245410047
  0.1914185275954226  0.7498850257881738  0.7375992245410047
  0.7025697372298734  0.7499315244404346  0.7202314841400891
  0.3060715738481329  0.2500212791948627  0.2743754850614911
  0.8030028639853020  0.2499860020383038  0.2733931078871161
  0.3030028639853020  0.7499860020383038  0.2733931078871161
  0.8060715738481327  0.7500212791948627  0.2743754850614911
  0.3060715738481329  0.2500212791948627  0.7743754850614910
  0.8030028639853020  0.2499860020383039  0.7733931078871161
  0.3030028639853020  0.7499860020383038  0.7733931078871161
  0.8060715738481327  0.7500212791948627  0.7743754850614911
  0.2181945503274392  0.2498203571894767  0.1347323259006304
  0.6919557841460671  0.2498218354585841  0.1510449259927979
  0.1919557841460671  0.7498218354585839  0.1510449259927979
  0.7181945503274392  0.7498203571894766  0.1347323259006304
  0.2181945503274393  0.2498203571894767  0.6347323259006304
  0.6919557841460668  0.2498218354585841  0.6510449259927978
  0.1919557841460671  0.7498218354585841  0.6510449259927978
  0.7181945503274391  0.7498203571894766  0.6347323259006304
  0.1578227497779782  0.3224389237996441  0.2433482613898345
  0.6508528635788687  0.3222654495811105  0.2676823771028002
  0.1508528635788688  0.8222654495811106  0.2676823771028002
  0.6578227497779783  0.8224389237996441  0.2433482613898345
  0.1578227497779782  0.3224389237996441  0.7433482613898346
  0.6508528635788686  0.3222654495811105  0.7676823771028001
  0.1508528635788688  0.8222654495811107  0.7676823771028001
  0.6578227497779783  0.8224389237996441  0.7433482613898346
  0.1578923805999103  0.1774627567083376  0.2435247591955304
  0.6509932866785567  0.1774893902419871  0.2677766542250949
  0.1509932866785569  0.6774893902419870  0.2677766542250949
  0.6578923805999101  0.6774627567083376  0.2435247591955304
  0.1578923805999103  0.1774627567083376  0.7435247591955304
  0.6509932866785568  0.1774893902419871  0.7677766542250949
  0.1509932866785568  0.6774893902419870  0.7677766542250949
  0.6578923805999102  0.6774627567083374  0.7435247591955304
  0.3514343557113821  0.3180602321123350  0.2549021042902495
  0.8448347990420269  0.3176883337021105  0.2466108776762285
  0.3448347990420270  0.8176883337021104  0.2466108776762285
  0.8514343557113819  0.8180602321123349  0.2549021042902494
  0.3514343557113822  0.3180602321123350  0.7549021042902494
  0.8448347990420269  0.3176883337021105  0.7466108776762285
  0.3448347990420270  0.8176883337021105  0.7466108776762285
  0.8514343557113819  0.8180602321123350  0.7549021042902494
  0.3514707013352711  0.1819269332686042  0.2550793912973714
  0.8449398991718076  0.1822828416740612  0.2467024083577558
  0.3449398991718077  0.6822828416740611  0.2467024083577558
  0.8514707013352709  0.6819269332686042  0.2550793912973714
  0.3514707013352711  0.1819269332686042  0.7550793912973714
  0.8449398991718077  0.1822828416740611  0.7467024083577558
  0.3449398991718078  0.6822828416740611  0.7467024083577558
  0.8514707013352709  0.6819269332686042  0.7550793912973714
  0.2969087114415103  0.2501417202938786  0.3558576520773503
  0.8094314345045175  0.2500453231450630  0.3553608372623141
  0.3094314345045177  0.7500453231450631  0.3553608372623140
  0.7969087114415102  0.7501417202938786  0.3558576520773504
  0.2969087114415103  0.2501417202938786  0.8558576520773503
  0.8094314345045176  0.2500453231450631  0.8553608372623142
  0.3094314345045177  0.7500453231450631  0.8553608372623142
  0.7969087114415102  0.7501417202938787  0.8558576520773503
  0.4724466637979754  0.5008989907548873  0.4888102350767855
  0.9724368881597474  0.4990805989749808  0.4888126589528223
  0.4724368881597476  0.9990805989749809  0.4888126589528224
  0.9724466637979752  0.0008989907548873  0.4888102350767855
  0.4724466637979753  0.5008989907548873  0.9888102350767858
  0.9724368881597474  0.4990805989749808  0.9888126589528223
  0.4724368881597475  0.9990805989749808  0.9888126589528223
  0.9724466637979753  0.0008989907548873  0.9888102350767858
  0.4547572227274223  0.5004751634867398  0.2375698606441365
  0.9547301259323795  0.4995069355378878  0.2375756232728530
  0.4547301259323795  0.9995069355378877  0.2375756232728530
  0.9547572227274220  0.0004751634867399  0.2375698606441365
  0.4547572227274223  0.5004751634867398  0.7375698606441363
  0.9547301259323794  0.4995069355378878  0.7375756232728531
  0.4547301259323795  0.9995069355378878  0.7375756232728531
  0.9547572227274221  0.0004751634867397  0.7375698606441364
  0.4671494612001212  0.2499755508495554  0.0085409275426684
  0.9321214179276691  0.2499824702415267  0.0151235079257504
  0.4321214179276691  0.7499824702415266  0.0151235079257504
  0.9671494612001211  0.7499755508495554  0.0085409275426684
  0.4671494612001212  0.2499755508495554  0.5085409275426683
  0.9321214179276691  0.2499824702415266  0.5151235079257505
  0.4321214179276692  0.7499824702415266  0.5151235079257505
  0.9671494612001211  0.7499755508495553  0.5085409275426683
  0.2161756661382901  0.4790932816678473  0.4612396987221850
  0.7161672107422852  0.5209015910496964  0.4612397049650277
  0.2161672107422853  0.0209015910496961  0.4612397049650277
  0.7161756661382901  0.9790932816678471  0.4612396987221849
  0.2161756661382901  0.4790932816678474  0.9612396987221850
  0.7161672107422851  0.5209015910496962  0.9612397049650278
  0.2161672107422853  0.0209015910496961  0.9612397049650278
  0.7161756661382901  0.9790932816678471  0.9612396987221850
