Ga1 As1
1.0
        8.9688159436         0.0000000000         0.0000000000
        0.0000000000         8.9688159436         0.0000000000
        0.0000000000         0.0000000000         8.9688159436
   Ga   As
    4    4
Direct
     0.000000000         0.000000000         0.000000000
     0.000000000         0.500000000         0.500000000
     0.500000000         0.000000000         0.500000000
     0.500000000         0.500000000         0.000000000
     0.250000000         0.250000000         0.250000000
     0.750000000         0.750000000         0.250000000
     0.750000000         0.250000000         0.750000000
     0.250000000         0.750000000         0.750000000
