C N H Pb I
   1.0
    12.5768374277686394    0.0019159116494978    0.1381987933539664
     0.0011956322447466   12.4575380825249127   -0.0007464134870236
     0.1394107043392118    0.0000890449825412   12.7474206252920563
   8    8   48    8   24
Direct
  0.1985379335617270  0.2497866794237785  0.2282175726835255
  0.6954503312635690  0.2500298708048300  0.2296131359975683
  0.1954503312635690  0.7500298708048300  0.2296131359975683
  0.6985379335617270  0.7497866794237784  0.2282175726835255
  0.1954503312635690  0.2500298708048299  0.7296131359975682
  0.6985379335617270  0.2497866794237786  0.7282175726835256
  0.1985379335617270  0.7497866794237785  0.7282175726835256
  0.6954503312635689  0.7500298708048300  0.7296131359975683
  0.3188114415600706  0.2499255287469246  0.2445610756389489
  0.7902629962733643  0.2500817524862419  0.3032075173096582
  0.2902629962733643  0.7500817524862419  0.3032075173096582
  0.8188114415600706  0.7499255287469246  0.2445610756389489
  0.2902629962733643  0.2500817524862420  0.8032075173096581
  0.8188114415600705  0.2499255287469246  0.7445610756389489
  0.3188114415600706  0.7499255287469245  0.7445610756389489
  0.7902629962733642  0.7500817524862420  0.8032075173096581
  0.1829312866473805  0.2497001119044376  0.1405070115191564
  0.7272190478261257  0.2499420807436232  0.1452702403742719
  0.2272190478261259  0.7499420807436232  0.1452702403742719
  0.6829312866473805  0.7497001119044374  0.1405070115191564
  0.2272190478261259  0.2499420807436233  0.6452702403742718
  0.6829312866473803  0.2497001119044376  0.6405070115191565
  0.1829312866473805  0.7497001119044374  0.6405070115191565
  0.7272190478261258  0.7499420807436232  0.6452702403742719
  0.1624138841269749  0.3220556344636778  0.2655898493977922
  0.6462617292298720  0.3226487389170768  0.2454407890948424
  0.1462617292298721  0.8226487389170770  0.2454407890948425
  0.6624138841269750  0.8220556344636777  0.2655898493977922
  0.1462617292298721  0.3226487389170768  0.7454407890948425
  0.6624138841269749  0.3220556344636778  0.7655898493977922
  0.1624138841269749  0.8220556344636777  0.7655898493977922
  0.6462617292298720  0.8226487389170770  0.7454407890948426
  0.1626214142163339  0.1774884226689352  0.2657008497668002
  0.6462642530621332  0.1774637242813895  0.2456005636538251
  0.1462642530621333  0.6774637242813896  0.2456005636538251
  0.6626214142163337  0.6774884226689351  0.2657008497668002
  0.1462642530621333  0.1774637242813895  0.7456005636538251
  0.6626214142163339  0.1774884226689351  0.7657008497668002
  0.1626214142163338  0.6774884226689351  0.7657008497668002
  0.6462642530621332  0.6774637242813896  0.7456005636538251
  0.3567582618696954  0.3176439144166738  0.2107266059693056
  0.8395108928837136  0.3181046513977716  0.2907863759971723
  0.3395108928837138  0.8181046513977716  0.2907863759971723
  0.8567582618696953  0.8176439144166739  0.2107266059693056
  0.3395108928837138  0.3181046513977717  0.7907863759971721
  0.8567582618696951  0.3176439144166739  0.7107266059693058
  0.3567582618696954  0.8176439144166737  0.7107266059693057
  0.8395108928837135  0.8181046513977717  0.7907863759971721
  0.3569511164784698  0.1822646739229813  0.2107538118267640
  0.8394594840286089  0.1819451010196840  0.2910279878283633
  0.3394594840286091  0.6819451010196841  0.2910279878283633
  0.8569511164784696  0.6822646739229813  0.2107538118267640
  0.3394594840286091  0.1819451010196840  0.7910279878283634
  0.8569511164784694  0.1822646739229813  0.7107538118267638
  0.3569511164784698  0.6822646739229813  0.7107538118267638
  0.8394594840286089  0.6819451010196840  0.7910279878283634
  0.3417957532325235  0.2499327111224402  0.3271782002894802
  0.7645443927135042  0.2502543323165015  0.3840402890501842
  0.2645443927135044  0.7502543323165015  0.3840402890501842
  0.8417957532325234  0.7499327111224401  0.3271782002894803
  0.2645443927135044  0.2502543323165015  0.8840402890501842
  0.8417957532325234  0.2499327111224402  0.8271782002894804
  0.3417957532325235  0.7499327111224401  0.8271782002894804
  0.7645443927135042  0.7502543323165015  0.8840402890501843
  0.4724343685483370  0.4961753111126453  0.4888013016698473
  0.9724491834093858  0.5038042786172229  0.4888215923597606
  0.4724491834093859  0.0038042786172228  0.4888215923597606
  0.9724343685483369  0.9961753111126453  0.4888013016698473
  0.4724491834093859  0.5038042786172228  0.9888215923597607
  0.9724343685483369  0.4961753111126453  0.9888013016698473
  0.4724343685483370  0.9961753111126453  0.9888013016698473
  0.9724491834093857  0.0038042786172228  0.9888215923597609
  0.4546546153585274  0.5078872462532624  0.2375772545627680
  0.9548327333012742  0.4920948527713652  0.2375682293542216
  0.4548327333012743  0.9920948527713651  0.2375682293542215
  0.9546546153585272  0.0078872462532624  0.2375772545627680
  0.4548327333012743  0.4920948527713652  0.7375682293542215
  0.9546546153585272  0.5078872462532624  0.7375772545627680
  0.4546546153585274  0.0078872462532624  0.7375772545627680
  0.9548327333012743  0.9920948527713652  0.7375682293542215
  0.5081823661057799  0.2499649470208341  0.0092165783341921
  0.8910885130220104  0.2499930740702480  0.0144478571342267
  0.3910885130220104  0.7499930740702478  0.0144478571342267
  0.0081823661057798  0.7499649470208340  0.0092165783341921
  0.3910885130220105  0.2499930740702480  0.5144478571342266
  0.0081823661057800  0.2499649470208341  0.5092165783341921
  0.5081823661057800  0.7499649470208340  0.5092165783341921
  0.8910885130220103  0.7499930740702478  0.5144478571342267
  0.2161569292379067  0.5671569686806364  0.4613098187961287
  0.7161859476426685  0.4328379040369073  0.4611695848910840
  0.2161859476426687  0.9328379040369073  0.4611695848910840
  0.7161569292379066  0.0671569686806359  0.4613098187961286
  0.2161859476426687  0.4328379040369073  0.9611695848910840
  0.7161569292379065  0.5671569686806363  0.9613098187961286
  0.2161569292379067  0.0671569686806361  0.9613098187961288
  0.7161859476426686  0.9328379040369073  0.9611695848910840
