C N H Pb I
   1.0
    12.5768374277686394    0.0019159116494978    0.1381987933539664
     0.0011956322447466   12.4575380825249127   -0.0007464134870236
     0.1394107043392118    0.0000890449825412   12.7474206252920563
C   N   H  Pb   I
   8    8   48    8   24
Direct
  0.2049473032318297  0.2499414384872849  0.2165284823616590
  0.6890409615934663  0.2498751117413235  0.2413022263194348
  0.1890409615934663  0.7498751117413235  0.2413022263194348
  0.7049473032318296  0.7499414384872850  0.2165284823616591
  0.2049473032318297  0.2499414384872849  0.7165284823616591
  0.6890409615934663  0.2498751117413236  0.7413022263194348
  0.1890409615934663  0.7498751117413235  0.7413022263194347
  0.7049473032318296  0.7499414384872850  0.7165284823616591
  0.3067258580449965  0.2500288006899139  0.2745849391608630
  0.8023485797884383  0.2499784805432527  0.2731836537877442
  0.3023485797884384  0.7499784805432524  0.2731836537877442
  0.8067258580449964  0.7500288006899140  0.2745849391608630
  0.3067258580449965  0.2500288006899139  0.7745849391608629
  0.8023485797884382  0.2499784805432527  0.7731836537877441
  0.3023485797884383  0.7499784805432526  0.7731836537877441
  0.8067258580449963  0.7500288006899140  0.7745849391608629
  0.2237889567148305  0.2498200420055203  0.1312542921577416
  0.6863613777586758  0.2498221506425405  0.1545229597356867
  0.1863613777586759  0.7498221506425405  0.1545229597356867
  0.7237889567148302  0.7498200420055202  0.1312542921577416
  0.2237889567148305  0.2498200420055203  0.6312542921577416
  0.6863613777586758  0.2498221506425405  0.6545229597356867
  0.1863613777586758  0.7498221506425404  0.6545229597356867
  0.7237889567148303  0.7498200420055202  0.6312542921577416
  0.1593088095874281  0.3224759104959508  0.2381599483634095
  0.6493668037694189  0.3222284628848038  0.2728706901292252
  0.1493668037694190  0.8222284628848039  0.2728706901292252
  0.6593088095874281  0.8224759104959508  0.2381599483634095
  0.1593088095874281  0.3224759104959507  0.7381599483634096
  0.6493668037694188  0.3222284628848038  0.7728706901292252
  0.1493668037694190  0.8222284628848040  0.7728706901292252
  0.6593088095874280  0.8224759104959508  0.7381599483634095
  0.1593633466824632  0.1774570781329907  0.2383539765633783
  0.6495223205960040  0.1774950688173339  0.2729474368572470
  0.1495223205960040  0.6774950688173338  0.2729474368572470
  0.6593633466824630  0.6774570781329907  0.2383539765633783
  0.1593633466824632  0.1774570781329907  0.7383539765633783
  0.6495223205960040  0.1774950688173339  0.7729474368572470
  0.1495223205960040  0.6774950688173339  0.7729474368572470
  0.6593633466824630  0.6774570781329907  0.7383539765633783
  0.3528414570106498  0.3181395251258570  0.2566698890560482
  0.8434276977427592  0.3176090406885885  0.2448430929104297
  0.3434276977427593  0.8176090406885884  0.2448430929104297
  0.8528414570106497  0.8181395251258569  0.2566698890560482
  0.3528414570106498  0.3181395251258570  0.7566698890560482
  0.8434276977427592  0.3176090406885885  0.7448430929104296
  0.3434276977427594  0.8176090406885883  0.7448430929104296
  0.8528414570106497  0.8181395251258570  0.7566698890560483
  0.3528631433840138  0.1818510495077958  0.2568654602969773
  0.8435474571230649  0.1823587254348696  0.2449163393581500
  0.3435474571230651  0.6823587254348695  0.2449163393581500
  0.8528631433840135  0.6818510495077958  0.2568654602969773
  0.3528631433840138  0.1818510495077958  0.7568654602969772
  0.8435474571230650  0.1823587254348695  0.7449163393581499
  0.3435474571230652  0.6823587254348694  0.7449163393581499
  0.8528631433840135  0.6818510495077960  0.7568654602969772
  0.2942387230202957  0.2501622732734407  0.3559635787034492
  0.8121014229257322  0.2500247701655009  0.3552549106362152
  0.3121014229257322  0.7500247701655010  0.3552549106362152
  0.7942387230202955  0.7501622732734408  0.3559635787034492
  0.2942387230202957  0.2501622732734407  0.8559635787034493
  0.8121014229257323  0.2500247701655009  0.8552549106362152
  0.3121014229257322  0.7500247701655011  0.8552549106362152
  0.7942387230202956  0.7501622732734406  0.8559635787034493
  0.4724487480763506  0.5012866927725039  0.4888097182785683
  0.9724348038813723  0.4986928969573642  0.4888131757510395
  0.4724348038813724  0.9986928969573642  0.4888131757510396
  0.9724487480763504  0.0012866927725037  0.4888097182785684
  0.4724487480763505  0.5012866927725039  0.9888097182785685
  0.9724348038813722  0.4986928969573642  0.9888131757510396
  0.4724348038813724  0.9986928969573642  0.9888131757510396
  0.9724487480763503  0.0012866927725039  0.9888097182785686
  0.4547630000754201  0.5006816008086804  0.2375686319854916
  0.9547243485843815  0.4993004982159472  0.2375768519314979
  0.4547243485843817  0.9993004982159472  0.2375768519314979
  0.9547630000754199  0.0006816008086803  0.2375686319854916
  0.4547630000754201  0.5006816008086804  0.7375686319854916
  0.9547243485843814  0.4993004982159473  0.7375768519314979
  0.4547243485843816  0.9993004982159472  0.7375768519314979
  0.9547630000754199  0.0006816008086803  0.7375686319854916
  0.4746178424367490  0.2499740755556955  0.0071374457826619
  0.9246530366910413  0.2499839455353866  0.0165269896857569
  0.4246530366910413  0.7499839455353866  0.0165269896857569
  0.9746178424367490  0.7499740755556954  0.0071374457826619
  0.4746178424367491  0.2499740755556955  0.5071374457826620
  0.9246530366910414  0.2499839455353866  0.5165269896857568
  0.4246530366910414  0.7499839455353866  0.5165269896857568
  0.9746178424367490  0.7499740755556953  0.5071374457826618
  0.2161774689258561  0.4701792698032995  0.4612396973911391
  0.7161654079547191  0.5298156029142441  0.4612397062960735
  0.2161654079547193  0.0298156029142440  0.4612397062960735
  0.7161774689258560  0.9701792698032994  0.4612396973911391
  0.2161774689258561  0.4701792698032995  0.9612396973911391
  0.7161654079547192  0.5298156029142440  0.9612397062960734
  0.2161654079547193  0.0298156029142440  0.9612397062960735
  0.7161774689258561  0.9701792698032994  0.9612396973911392
