Automatically generated mesh
      30
Reciprocal lattice
    0.00000000000000    0.00000000000000    0.00000000000000             1
    0.25000000000000    0.00000000000000    0.00000000000000             6
    0.50000000000000    0.00000000000000    0.00000000000000             3
    0.25000000000000    0.25000000000000    0.00000000000000            12
    0.50000000000000    0.25000000000000    0.00000000000000            12
    0.50000000000000    0.50000000000000    0.00000000000000             3
    0.25000000000000    0.25000000000000    0.25000000000000             8
    0.50000000000000    0.25000000000000    0.25000000000000            12
    0.50000000000000    0.50000000000000    0.25000000000000             6
    0.50000000000000    0.50000000000000    0.50000000000000             1
0.00000000  0.00000000  0.00000000   0.00
0.00000000  0.10000000  0.00000000   0.00
0.00000000  0.20000000  0.00000000   0.00
0.00000000  0.30000001  0.00000000   0.00
0.00000000  0.40000001  0.00000000   0.00
0.00000000  0.50000000  0.00000000   0.00
0.00000000  0.60000002  0.00000000   0.00
0.00000000  0.69999999  0.00000000   0.00
0.00000000  0.80000001  0.00000000   0.00
0.00000000  0.90000004  0.00000000   0.00
0.00000000  1.00000000  0.00000000   0.00
0.07142857  0.92857140  0.00000000   0.00
0.14285715  0.85714287  0.00000000   0.00
0.21428570  0.78571427  0.00000000   0.00
0.28571430  0.71428573  0.00000000   0.00
0.35714287  0.64285713  0.00000000   0.00
0.42857140  0.57142860  0.00000000   0.00
0.50000000  0.50000000  0.00000000   0.00
0.57142860  0.42857140  0.00000000   0.00
0.64285719  0.35714281  0.00000000   0.00
0.71428573  0.28571427  0.00000000   0.00
0.78571427  0.21428573  0.00000000   0.00
0.85714281  0.14285719  0.00000000   0.00
0.92857146  0.07142854  0.00000000   0.00
1.00000000  0.00000000  0.00000000   0.00
