C N H Pb I
   1.0
    12.5768374277686394    0.0019159116494978    0.1381987933539664
     0.0011956322447466   12.4575380825249127   -0.0007464134870236
     0.1394107043392118    0.0000890449825412   12.7474206252920563
   8    8   48    8   24
Direct
  0.1982291733319112  0.2498109985618837  0.2283571290149298
  0.6957590914933848  0.2500055516667248  0.2294735796661641
  0.1957590914933847  0.7500055516667248  0.2294735796661641
  0.6982291733319110  0.7498109985618836  0.2283571290149298
  0.1957590914933848  0.2500055516667248  0.7294735796661640
  0.6982291733319111  0.2498109985618837  0.7283571290149298
  0.1982291733319112  0.7498109985618836  0.7283571290149298
  0.6957590914933848  0.7500055516667249  0.7294735796661640
  0.3159565970313999  0.2499411511208564  0.2504257198060199
  0.7931178408020348  0.2500661301123102  0.2973428731425873
  0.2931178408020350  0.7500661301123102  0.2973428731425873
  0.8159565970313999  0.7499411511208565  0.2504257198060199
  0.2931178408020349  0.2500661301123103  0.7973428731425872
  0.8159565970313999  0.2499411511208564  0.7504257198060199
  0.3159565970313999  0.7499411511208562  0.7504257198060199
  0.7931178408020347  0.7500661301123103  0.7973428731425873
  0.1873600627652550  0.2497243087883561  0.1409833344046680
  0.7227902717082511  0.2499178838597046  0.1447939174887604
  0.2227902717082513  0.7499178838597046  0.1447939174887603
  0.6873600627652549  0.7497243087883561  0.1409833344046680
  0.2227902717082513  0.2499178838597047  0.6447939174887604
  0.6873600627652550  0.2497243087883561  0.6409833344046679
  0.1873600627652551  0.7497243087883561  0.6409833344046680
  0.7227902717082512  0.7499178838597046  0.6447939174887602
  0.1607986686372647  0.3221149449090177  0.2635749433674973
  0.6478769447195823  0.3225894284717369  0.2474556951251374
  0.1478769447195824  0.8225894284717370  0.2474556951251374
  0.6607986686372647  0.8221149449090177  0.2635749433674973
  0.1478769447195824  0.3225894284717370  0.7474556951251375
  0.6607986686372644  0.3221149449090177  0.7635749433674972
  0.1607986686372647  0.8221149449090177  0.7635749433674972
  0.6478769447195823  0.8225894284717370  0.7474556951251374
  0.1609856981009138  0.1774859528301806  0.2636908211555027
  0.6478999691775532  0.1774661941201441  0.2476105922651226
  0.1478999691775534  0.6774661941201441  0.2476105922651226
  0.6609856981009136  0.6774859528301805  0.2636908211555027
  0.1478999691775534  0.1774661941201441  0.7476105922651226
  0.6609856981009137  0.1774859528301806  0.7636908211555026
  0.1609856981009138  0.6774859528301805  0.7636908211555026
  0.6478999691775531  0.6774661941201441  0.7476105922651227
  0.3550335249710972  0.3176899881147836  0.2187325829720923
  0.8412356297823118  0.3180585776996618  0.2827803989943856
  0.3412356297823119  0.8180585776996618  0.2827803989943856
  0.8550335249710971  0.8176899881147836  0.2187325829720923
  0.3412356297823120  0.3180585776996618  0.7827803989943856
  0.8550335249710970  0.3176899881147836  0.7187325829720923
  0.3550335249710972  0.8176899881147834  0.7187325829720923
  0.8412356297823117  0.8180585776996619  0.7827803989943856
  0.3552019532334836  0.1822327166326516  0.2187812294269239
  0.8412086472735949  0.1819770583100138  0.2830005702282033
  0.3412086472735952  0.6819770583100137  0.2830005702282033
  0.8552019532334836  0.6822327166326516  0.2187812294269239
  0.3412086472735953  0.1819770583100138  0.7830005702282035
  0.8552019532334836  0.1822327166326516  0.7187812294269238
  0.3552019532334836  0.6822327166326516  0.7187812294269238
  0.8412086472735950  0.6819770583100137  0.7830005702282034
  0.3340706171806216  0.2499648732418463  0.3328644091655507
  0.7722695287654063  0.2502221701970953  0.3783540801741138
  0.2722695287654063  0.7502221701970954  0.3783540801741138
  0.8340706171806215  0.7499648732418464  0.3328644091655507
  0.2722695287654063  0.2502221701970953  0.8783540801741139
  0.8340706171806216  0.2499648732418463  0.8328644091655508
  0.3340706171806216  0.7499648732418464  0.8328644091655507
  0.7722695287654063  0.7502221701970954  0.8783540801741138
  0.4724358500344420  0.4969382078631030  0.4888033307388386
  0.9724477019232809  0.5030413818667651  0.4888195632907693
  0.4724477019232810  0.0030413818667649  0.4888195632907693
  0.9724358500344417  0.9969382078631031  0.4888033307388386
  0.4724477019232809  0.5030413818667649  0.9888195632907694
  0.9724358500344418  0.4969382078631031  0.9888033307388386
  0.4724358500344419  0.9969382078631031  0.9888033307388386
  0.9724477019232808  0.0030413818667649  0.9888195632907695
  0.4546724271528021  0.5063080069050727  0.2375763520419134
  0.9548149215069995  0.4936740921195549  0.2375691318750762
  0.4548149215069996  0.9936740921195548  0.2375691318750762
  0.9546724271528020  0.0063080069050729  0.2375763520419134
  0.4548149215069996  0.4936740921195549  0.7375691318750762
  0.9546724271528020  0.5063080069050727  0.7375763520419133
  0.4546724271528021  0.0063080069050727  0.7375763520419133
  0.9548149215069996  0.9936740921195548  0.7375691318750762
  0.4964729807974030  0.2499677597257755  0.0097397062141955
  0.9027978983303873  0.2499902613653066  0.0139247292542233
  0.4027978983303873  0.7499902613653066  0.0139247292542233
  0.9964729807974030  0.7499677597257753  0.0097397062141955
  0.4027978983303874  0.2499902613653066  0.5139247292542233
  0.9964729807974030  0.2499677597257755  0.5097397062141955
  0.4964729807974030  0.7499677597257753  0.5097397062141955
  0.9027978983303873  0.7499902613653064  0.5139247292542232
  0.2161598310783829  0.5537250622162634  0.4612957954056242
  0.7161830458021923  0.4462698105012802  0.4611836082815884
  0.2161830458021925  0.9462698105012801  0.4611836082815884
  0.7161598310783829  0.0537250622162631  0.4612957954056242
  0.2161830458021925  0.4462698105012802  0.9611836082815884
  0.7161598310783828  0.5537250622162634  0.9612957954056242
  0.2161598310783829  0.0537250622162633  0.9612957954056243
  0.7161830458021924  0.9462698105012801  0.9611836082815884
