C N H Pb I                              
   1.00000000000000     
    12.5768374277686394    0.0019159116494978    0.1381987933539664
     0.0011956322447466   12.4575380825249127   -0.0007464134870236
     0.1394107043392118    0.0000890449825412   12.7474206252920563
   C    N    H    Pb   I 
     8     8    48     8    24
Direct
  0.2033622592305235  0.2499348291227150  0.2189971502139443
  0.6906260055947726  0.2498817211058935  0.2388335584671495
  0.1906260055947726  0.7498817211058935  0.2388335584671495
  0.7033622592305235  0.7499348291227150  0.2189971502139443
  0.2033622592305235  0.2499348291227150  0.7189971502139443
  0.6906260055947726  0.2498817211058935  0.7388335584671495
  0.1906260055947726  0.7498817211058935  0.7388335584671495
  0.7033622592305235  0.7499348291227150  0.7189971502139443
  0.3062896685804191  0.2500237863598826  0.2744453030946161
  0.8027847692530159  0.2499834948732840  0.2733232898539910
  0.3027847692530159  0.7499834948732840  0.2733232898539910
  0.8062896685804191  0.7500237863598826  0.2744453030946161
  0.3062896685804191  0.2500237863598826  0.7744453030946161
  0.8027847692530159  0.2499834948732840  0.7733232898539910
  0.3027847692530159  0.7499834948732840  0.7733232898539910
  0.8062896685804191  0.7500237863598826  0.7744453030946161
  0.2200593524565733  0.2498202521281598  0.1335729813196664
  0.6900909820169332  0.2498219405199009  0.1522042705737618
  0.1900909820169332  0.7498219405199009  0.1522042705737618
  0.7200593524565662  0.7498202521281598  0.1335729813196664
  0.2200593524565733  0.2498202521281598  0.6335729813196664
  0.6900909820169332  0.2498219405199009  0.6522042705737618
  0.1900909820169332  0.7498219405199009  0.6522042705737618
  0.7200593524565662  0.7498202521281598  0.6335729813196664
  0.1583181030477974  0.3224512526984142  0.2416188237143615
  0.6503575103090498  0.3222531206823405  0.2694118147782731
  0.1503575103090498  0.8222531206823405  0.2694118147782731
  0.6583181030477974  0.8224512526984142  0.2416188237143615
  0.1583181030477974  0.3224512526984142  0.7416188237143615
  0.6503575103090498  0.3222531206823405  0.7694118147782731
  0.1503575103090498  0.8222531206823405  0.7694118147782731
  0.6583181030477974  0.8224512526984142  0.7416188237143615
  0.1583827026274278  0.1774608638498876  0.2418011649848140
  0.6505029646510394  0.1774912831004372  0.2695002484358113
  0.1505029646510394  0.6774912831004372  0.2695002484358113
  0.6583827026274278  0.6774608638498876  0.2418011649848140
  0.1583827026274278  0.1774608638498876  0.7418011649848140
  0.6505029646510394  0.1774912831004372  0.7695002484358113
  0.1505029646510394  0.6774912831004372  0.7695002484358113
  0.6583827026274278  0.6774608638498876  0.7418011649848140
  0.3519033894778048  0.3180866631168442  0.2554913658788465
  0.8443657652756045  0.3176619026976013  0.2460216160876314
  0.3443657652756045  0.8176619026976013  0.2460216160876314
  0.8519033894778048  0.8180866631168442  0.2554913658788465
  0.3519033894778048  0.3180866631168442  0.7554913658788465
  0.8443657652756045  0.3176619026976013  0.7460216160876314
  0.3443657652756045  0.8176619026976013  0.7460216160876314
  0.8519033894778048  0.8180866631168442  0.7554913658788465
  0.3519348486848486  0.1819016386816656  0.2556747476305716
  0.8444757518222232  0.1823081362609997  0.2461070520245556
  0.3444757518222303  0.6823081362609997  0.2461070520245556
  0.8519348486848486  0.6819016386816656  0.2556747476305716
  0.3519348486848486  0.1819016386816656  0.7556747476305716
  0.8444757518222232  0.1823081362609997  0.7461070520245556
  0.3444757518222303  0.6823081362609997  0.7461070520245556
  0.8519348486848486  0.6819016386816656  0.7556747476305716
  0.2960187153011020  0.2501485712870632  0.3558929609527155
  0.8103214306449189  0.2500384721518785  0.3553255283869490
  0.3103214306449260  0.7500384721518785  0.3553255283869490
  0.7960187153011020  0.7501485712870632  0.3558929609527155
  0.2960187153011020  0.2501485712870632  0.8558929609527155
  0.8103214306449189  0.2500384721518785  0.8553255283869490
  0.3103214306449260  0.7500384721518785  0.8553255283869490
  0.7960187153011020  0.7501485712870632  0.8558929609527155
  0.4724473585574316  0.5010282247607591  0.4888100628107139
  0.9724361934002914  0.4989513649691091  0.4888128312188940
  0.4724361934002914  0.9989513649691091  0.4888128312188940
  0.9724473585574316  0.0010282247607591  0.4888100628107139
  0.4724473585574316  0.5010282247607591  0.9888100628107139
  0.9724361934002914  0.4989513649691091  0.9888128312188940
  0.4724361934002914  0.9989513649691091  0.9888128312188940
  0.9724473585574316  0.0010282247607591  0.9888100628107139
  0.4547591485100853  0.5005439759273855  0.2375694510912538
  0.9547282001497166  0.4994381230972422  0.2375760328257357
  0.4547282001497166  0.9994381230972422  0.2375760328257357
  0.9547591485100853  0.0005439759273855  0.2375694510912538
  0.4547591485100853  0.5005439759273855  0.7375694510912538
  0.9547282001497166  0.4994381230972422  0.7375760328257357
  0.4547282001497166  0.9994381230972422  0.7375760328257357
  0.9547591485100853  0.0005439759273855  0.7375694510912538
  0.4696389216123293  0.2499750590849388  0.0080731002893302
  0.9296319575154612  0.2499829620061433  0.0155913351790886
  0.4296319575154612  0.7499829620061433  0.0155913351790886
  0.9696389216123293  0.7499750590849388  0.0080731002893302
  0.4696389216123293  0.2499750590849388  0.5080731002893302
  0.9296319575154612  0.2499829620061433  0.5155913351790886
  0.4296319575154612  0.7499829620061433  0.5155913351790886
  0.9696389216123293  0.7499750590849388  0.5080731002893302
  0.2161762670674818  0.4761219443796634  0.4612396982785043
  0.7161666098130937  0.5238729283378802  0.4612397054087083
  0.2161666098130937  0.0238729283378802  0.4612397054087083
  0.7161762670674818  0.9761219443796634  0.4612396982785043
  0.2161762670674818  0.4761219443796634  0.9612396982785043
  0.7161666098130937  0.5238729283378802  0.9612397054087083
  0.2161666098130937  0.0238729283378802  0.9612397054087083
  0.7161762670674818  0.9761219443796634  0.9612396982785043
 
  0.00000000E+00  0.00000000E+00  0.00000000E+00
  0.00000000E+00  0.00000000E+00  0.00000000E+00
  0.00000000E+00  0.00000000E+00  0.00000000E+00
  0.00000000E+00  0.00000000E+00  0.00000000E+00
  0.00000000E+00  0.00000000E+00  0.00000000E+00
  0.00000000E+00  0.00000000E+00  0.00000000E+00
  0.00000000E+00  0.00000000E+00  0.00000000E+00
  0.00000000E+00  0.00000000E+00  0.00000000E+00
  0.00000000E+00  0.00000000E+00  0.00000000E+00
  0.00000000E+00  0.00000000E+00  0.00000000E+00
  0.00000000E+00  0.00000000E+00  0.00000000E+00
  0.00000000E+00  0.00000000E+00  0.00000000E+00
  0.00000000E+00  0.00000000E+00  0.00000000E+00
  0.00000000E+00  0.00000000E+00  0.00000000E+00
  0.00000000E+00  0.00000000E+00  0.00000000E+00
  0.00000000E+00  0.00000000E+00  0.00000000E+00
  0.00000000E+00  0.00000000E+00  0.00000000E+00
  0.00000000E+00  0.00000000E+00  0.00000000E+00
  0.00000000E+00  0.00000000E+00  0.00000000E+00
  0.00000000E+00  0.00000000E+00  0.00000000E+00
  0.00000000E+00  0.00000000E+00  0.00000000E+00
  0.00000000E+00  0.00000000E+00  0.00000000E+00
  0.00000000E+00  0.00000000E+00  0.00000000E+00
  0.00000000E+00  0.00000000E+00  0.00000000E+00
  0.00000000E+00  0.00000000E+00  0.00000000E+00
  0.00000000E+00  0.00000000E+00  0.00000000E+00
  0.00000000E+00  0.00000000E+00  0.00000000E+00
  0.00000000E+00  0.00000000E+00  0.00000000E+00
  0.00000000E+00  0.00000000E+00  0.00000000E+00
  0.00000000E+00  0.00000000E+00  0.00000000E+00
  0.00000000E+00  0.00000000E+00  0.00000000E+00
  0.00000000E+00  0.00000000E+00  0.00000000E+00
  0.00000000E+00  0.00000000E+00  0.00000000E+00
  0.00000000E+00  0.00000000E+00  0.00000000E+00
  0.00000000E+00  0.00000000E+00  0.00000000E+00
  0.00000000E+00  0.00000000E+00  0.00000000E+00
  0.00000000E+00  0.00000000E+00  0.00000000E+00
  0.00000000E+00  0.00000000E+00  0.00000000E+00
  0.00000000E+00  0.00000000E+00  0.00000000E+00
  0.00000000E+00  0.00000000E+00  0.00000000E+00
  0.00000000E+00  0.00000000E+00  0.00000000E+00
  0.00000000E+00  0.00000000E+00  0.00000000E+00
  0.00000000E+00  0.00000000E+00  0.00000000E+00
  0.00000000E+00  0.00000000E+00  0.00000000E+00
  0.00000000E+00  0.00000000E+00  0.00000000E+00
  0.00000000E+00  0.00000000E+00  0.00000000E+00
  0.00000000E+00  0.00000000E+00  0.00000000E+00
  0.00000000E+00  0.00000000E+00  0.00000000E+00
  0.00000000E+00  0.00000000E+00  0.00000000E+00
  0.00000000E+00  0.00000000E+00  0.00000000E+00
  0.00000000E+00  0.00000000E+00  0.00000000E+00
  0.00000000E+00  0.00000000E+00  0.00000000E+00
  0.00000000E+00  0.00000000E+00  0.00000000E+00
  0.00000000E+00  0.00000000E+00  0.00000000E+00
  0.00000000E+00  0.00000000E+00  0.00000000E+00
  0.00000000E+00  0.00000000E+00  0.00000000E+00
  0.00000000E+00  0.00000000E+00  0.00000000E+00
  0.00000000E+00  0.00000000E+00  0.00000000E+00
  0.00000000E+00  0.00000000E+00  0.00000000E+00
  0.00000000E+00  0.00000000E+00  0.00000000E+00
  0.00000000E+00  0.00000000E+00  0.00000000E+00
  0.00000000E+00  0.00000000E+00  0.00000000E+00
  0.00000000E+00  0.00000000E+00  0.00000000E+00
  0.00000000E+00  0.00000000E+00  0.00000000E+00
  0.00000000E+00  0.00000000E+00  0.00000000E+00
  0.00000000E+00  0.00000000E+00  0.00000000E+00
  0.00000000E+00  0.00000000E+00  0.00000000E+00
  0.00000000E+00  0.00000000E+00  0.00000000E+00
  0.00000000E+00  0.00000000E+00  0.00000000E+00
  0.00000000E+00  0.00000000E+00  0.00000000E+00
  0.00000000E+00  0.00000000E+00  0.00000000E+00
  0.00000000E+00  0.00000000E+00  0.00000000E+00
  0.00000000E+00  0.00000000E+00  0.00000000E+00
  0.00000000E+00  0.00000000E+00  0.00000000E+00
  0.00000000E+00  0.00000000E+00  0.00000000E+00
  0.00000000E+00  0.00000000E+00  0.00000000E+00
  0.00000000E+00  0.00000000E+00  0.00000000E+00
  0.00000000E+00  0.00000000E+00  0.00000000E+00
  0.00000000E+00  0.00000000E+00  0.00000000E+00
  0.00000000E+00  0.00000000E+00  0.00000000E+00
  0.00000000E+00  0.00000000E+00  0.00000000E+00
  0.00000000E+00  0.00000000E+00  0.00000000E+00
  0.00000000E+00  0.00000000E+00  0.00000000E+00
  0.00000000E+00  0.00000000E+00  0.00000000E+00
  0.00000000E+00  0.00000000E+00  0.00000000E+00
  0.00000000E+00  0.00000000E+00  0.00000000E+00
  0.00000000E+00  0.00000000E+00  0.00000000E+00
  0.00000000E+00  0.00000000E+00  0.00000000E+00
  0.00000000E+00  0.00000000E+00  0.00000000E+00
  0.00000000E+00  0.00000000E+00  0.00000000E+00
  0.00000000E+00  0.00000000E+00  0.00000000E+00
  0.00000000E+00  0.00000000E+00  0.00000000E+00
  0.00000000E+00  0.00000000E+00  0.00000000E+00
  0.00000000E+00  0.00000000E+00  0.00000000E+00
  0.00000000E+00  0.00000000E+00  0.00000000E+00
  0.00000000E+00  0.00000000E+00  0.00000000E+00
