C N H Pb I
   1.0
    12.5768374277686394    0.0019159116494978    0.1381987933539664
     0.0011956322447466   12.4575380825249127   -0.0007464134870236
     0.1394107043392118    0.0000890449825412   12.7474206252920563
C   N   H  Pb   I
   8    8   48    8   24
Direct
  0.1977199659608988  0.2498511056844543  0.2285872853166886
  0.6962682988643972  0.2499654445441542  0.2292434233644053
  0.1962682988643972  0.7499654445441543  0.2292434233644052
  0.6977199659608987  0.7498511056844542  0.2285872853166886
  0.1962682988643972  0.2499654445441542  0.7292434233644052
  0.6977199659608988  0.2498511056844543  0.7285872853166887
  0.1977199659608988  0.7498511056844542  0.7285872853166887
  0.6962682988643971  0.7499654445441543  0.7292434233644052
  0.3112483874347192  0.2499669155399538  0.2600976909663532
  0.7978260503987156  0.2500403656932129  0.2876709019822539
  0.2978260503987156  0.7500403656932129  0.2876709019822539
  0.8112483874347192  0.7499669155399538  0.2600976909663532
  0.2978260503987156  0.2500403656932129  0.7876709019822540
  0.8112483874347192  0.2499669155399537  0.7600976909663532
  0.3112483874347192  0.7499669155399536  0.7600976909663532
  0.7978260503987155  0.7500403656932130  0.7876709019822539
  0.1946640003388479  0.2497642142893294  0.1417688861074600
  0.7154863341346583  0.2498779783587315  0.1440083657859683
  0.2154863341346585  0.7498779783587313  0.1440083657859683
  0.6946640003388477  0.7497642142893293  0.1417688861074600
  0.2154863341346585  0.2498779783587315  0.6440083657859682
  0.6946640003388477  0.2497642142893294  0.6417688861074601
  0.1946640003388478  0.7497642142893293  0.6417688861074601
  0.7154863341346585  0.7498779783587314  0.6440083657859682
  0.1581348552516325  0.3222127596954758  0.2602519603423498
  0.6505407581052145  0.3224916136852788  0.2507786781502849
  0.1505407581052145  0.8224916136852789  0.2507786781502849
  0.6581348552516326  0.8222127596954758  0.2602519603423498
  0.1505407581052145  0.3224916136852788  0.7507786781502849
  0.6581348552516324  0.3222127596954758  0.7602519603423498
  0.1581348552516326  0.8222127596954758  0.7602519603423497
  0.6505407581052144  0.8224916136852789  0.7507786781502849
  0.1582880750833680  0.1774818795721100  0.2603758819697549
  0.6505975921950991  0.1774702673782146  0.2509255314508704
  0.1505975921950991  0.6774702673782145  0.2509255314508704
  0.6582880750833680  0.6774818795721100  0.2603758819697549
  0.1505975921950991  0.1774702673782146  0.7509255314508705
  0.6582880750833680  0.1774818795721100  0.7603758819697548
  0.1582880750833680  0.6774818795721100  0.7603758819697547
  0.6505975921950991  0.6774702673782146  0.7509255314508705
  0.3521890888779289  0.3177659728577173  0.2319360402450878
  0.8440800658754801  0.3179825929567282  0.2695769417213901
  0.3440800658754802  0.8179825929567280  0.2695769417213901
  0.8521890888779289  0.8177659728577172  0.2319360402450878
  0.3440800658754802  0.3179825929567282  0.7695769417213900
  0.8521890888779287  0.3177659728577172  0.7319360402450878
  0.3521890888779289  0.8177659728577171  0.7319360402450878
  0.8440800658754800  0.8179825929567281  0.7695769417213900
  0.3523172332098557  0.1821800126694512  0.2320200465331024
  0.8440933672972230  0.1820297622732142  0.2697617531220248
  0.3440933672972232  0.6820297622732142  0.2697617531220248
  0.8523172332098555  0.6821800126694512  0.2320200465331024
  0.3440933672972232  0.1820297622732142  0.7697617531220249
  0.8523172332098555  0.1821800126694511  0.7320200465331024
  0.3523172332098557  0.6821800126694512  0.7320200465331024
  0.8440933672972231  0.6820297622732142  0.7697617531220248
  0.3213303228038336  0.2500179150091770  0.3422421048439661
  0.7850098231421943  0.2501691284297647  0.3689763844956984
  0.2850098231421943  0.7501691284297647  0.3689763844956984
  0.8213303228038336  0.7500179150091770  0.3422421048439661
  0.2850098231421943  0.2501691284297647  0.8689763844956984
  0.8213303228038336  0.2500179150091770  0.8422421048439661
  0.3213303228038336  0.7500179150091770  0.8422421048439661
  0.7850098231421943  0.7501691284297647  0.8689763844956984
  0.4724382933013262  0.4981963771839600  0.4888066770794197
  0.9724452586563965  0.5017832125459081  0.4888162169501881
  0.4724452586563967  0.0017832125459081  0.4888162169501881
  0.9724382933013260  0.9981963771839600  0.4888066770794198
  0.4724452586563967  0.5017832125459080  0.9888162169501882
  0.9724382933013261  0.4981963771839601  0.9888066770794199
  0.4724382933013262  0.9981963771839600  0.9888066770794199
  0.9724452586563964  0.0017832125459081  0.9888162169501882
  0.4547018023639269  0.5037035253720445  0.2375748636045195
  0.9547855462958746  0.4962785736525830  0.2375706203124700
  0.4547855462958749  0.9962785736525829  0.2375706203124700
  0.9547018023639268  0.0037035253720445  0.2375748636045195
  0.4547855462958749  0.4962785736525830  0.7375706203124699
  0.9547018023639267  0.5037035253720447  0.7375748636045196
  0.4547018023639268  0.0037035253720448  0.7375748636045196
  0.9547855462958746  0.9962785736525829  0.7375706203124699
  0.4771618625468225  0.2499723984387648  0.0106024487139043
  0.9221090165809680  0.2499856226523173  0.0130619867545145
  0.4221090165809679  0.7499856226523173  0.0130619867545145
  0.9771618625468222  0.7499723984387647  0.0106024487139043
  0.4221090165809679  0.2499856226523172  0.5130619867545145
  0.9771618625468224  0.2499723984387648  0.5106024487139043
  0.4771618625468225  0.7499723984387647  0.5106024487139043
  0.9221090165809680  0.7499856226523173  0.5130619867545145
  0.2161646167936965  0.5315731620752238  0.4612726680299987
  0.7161782600868788  0.4684217106423199  0.4612067356572140
  0.2161782600868789  0.9684217106423196  0.4612067356572140
  0.7161646167936965  0.0315731620752235  0.4612726680299987
  0.2161782600868789  0.4684217106423199  0.9612067356572140
  0.7161646167936964  0.5315731620752238  0.9612726680299987
  0.2161646167936965  0.0315731620752235  0.9612726680299988
  0.7161782600868789  0.9684217106423196  0.9612067356572139
