C N H Pb I                              
   1.00000000000000     
    12.5768374277686394    0.0019159116494978    0.1381987933539664
     0.0011956322447466   12.4575380825249127   -0.0007464134870236
     0.1394107043392118    0.0000890449825412   12.7474206252920563
   C    N    H    Pb   I 
     8     8    48     8    24
Direct
  0.1977199659608999  0.2498511056844563  0.2285872853166921
  0.6962682988643962  0.2499654445441521  0.2292434233644087
  0.1962682988643962  0.7499654445441521  0.2292434233644087
  0.6977199659608999  0.7498511056844563  0.2285872853166921
  0.1962682988643962  0.2499654445441521  0.7292434233644087
  0.6977199659608999  0.2498511056844563  0.7285872853166921
  0.1977199659608999  0.7498511056844563  0.7285872853166921
  0.6962682988643962  0.7499654445441521  0.7292434233644087
  0.3112483874347163  0.2499669155399573  0.2600976909663544
  0.7978260503987187  0.2500403656932164  0.2876709019822528
  0.2978260503987187  0.7500403656932093  0.2876709019822528
  0.8112483874347163  0.7499669155399573  0.2600976909663544
  0.2978260503987187  0.2500403656932164  0.7876709019822528
  0.8112483874347163  0.2499669155399502  0.7600976909663544
  0.3112483874347163  0.7499669155399502  0.7600976909663544
  0.7978260503987187  0.7500403656932164  0.7876709019822528
  0.1946640003388467  0.2497642142893284  0.1417688861074566
  0.7154863341346598  0.2498779783587324  0.1440083657859716
  0.2154863341346598  0.7498779783587324  0.1440083657859716
  0.6946640003388467  0.7497642142893284  0.1417688861074566
  0.2154863341346598  0.2498779783587324  0.6440083657859716
  0.6946640003388467  0.2497642142893284  0.6417688861074566
  0.1946640003388467  0.7497642142893284  0.6417688861074566
  0.7154863341346598  0.7498779783587324  0.6440083657859716
  0.1581348552516317  0.3222127596954749  0.2602519603423517
  0.6505407581052154  0.3224916136852798  0.2507786781502830
  0.1505407581052154  0.8224916136852798  0.2507786781502830
  0.6581348552516317  0.8222127596954749  0.2602519603423517
  0.1505407581052154  0.3224916136852798  0.7507786781502830
  0.6581348552516317  0.3222127596954749  0.7602519603423517
  0.1581348552516317  0.8222127596954749  0.7602519603423517
  0.6505407581052154  0.8224916136852798  0.7507786781502830
  0.1582880750833695  0.1774818795721131  0.2603758819697575
  0.6505975921950977  0.1774702673782116  0.2509255314508678
  0.1505975921950977  0.6774702673782116  0.2509255314508678
  0.6582880750833695  0.6774818795721131  0.2603758819697575
  0.1505975921950977  0.1774702673782116  0.7509255314508678
  0.6582880750833695  0.1774818795721131  0.7603758819697575
  0.1582880750833695  0.6774818795721131  0.7603758819697575
  0.6505975921950977  0.6774702673782116  0.7509255314508678
  0.3521890888779282  0.3177659728577140  0.2319360402450883
  0.8440800658754810  0.3179825929567315  0.2695769417213896
  0.3440800658754810  0.8179825929567315  0.2695769417213896
  0.8521890888779282  0.8177659728577140  0.2319360402450883
  0.3440800658754810  0.3179825929567315  0.7695769417213896
  0.8521890888779282  0.3177659728577140  0.7319360402450883
  0.3521890888779282  0.8177659728577140  0.7319360402450883
  0.8440800658754810  0.8179825929567315  0.7695769417213896
  0.3523172332098525  0.1821800126694484  0.2320200465331013
  0.8440933672972264  0.1820297622732170  0.2697617531220260
  0.3440933672972264  0.6820297622732170  0.2697617531220260
  0.8523172332098525  0.6821800126694484  0.2320200465331013
  0.3440933672972264  0.1820297622732170  0.7697617531220260
  0.8523172332098525  0.1821800126694484  0.7320200465331013
  0.3523172332098525  0.6821800126694484  0.7320200465331013
  0.8440933672972264  0.6820297622732170  0.7697617531220260
  0.3213303228038313  0.2500179150091739  0.3422421048439688
  0.7850098231421967  0.2501691284297678  0.3689763844956957
  0.2850098231421967  0.7501691284297678  0.3689763844956957
  0.8213303228038313  0.7500179150091739  0.3422421048439688
  0.2850098231421967  0.2501691284297678  0.8689763844956957
  0.8213303228038313  0.2500179150091739  0.8422421048439688
  0.3213303228038313  0.7500179150091739  0.8422421048439688
  0.7850098231421967  0.7501691284297678  0.8689763844956957
  0.4724382933013231  0.4981963771839588  0.4888066770794168
  0.9724452586563999  0.5017832125459094  0.4888162169501911
  0.4724452586563999  0.0017832125459094  0.4888162169501911
  0.9724382933013231  0.9981963771839588  0.4888066770794168
  0.4724452586563999  0.5017832125459094  0.9888162169501911
  0.9724382933013231  0.4981963771839588  0.9888066770794168
  0.4724382933013231  0.9981963771839588  0.9888066770794168
  0.9724452586563999  0.0017832125459094  0.9888162169501911
  0.4547018023639282  0.5037035253720461  0.2375748636045216
  0.9547855462958736  0.4962785736525817  0.2375706203124679
  0.4547855462958736  0.9962785736525817  0.2375706203124679
  0.9547018023639282  0.0037035253720461  0.2375748636045216
  0.4547855462958736  0.4962785736525817  0.7375706203124679
  0.9547018023639282  0.5037035253720461  0.7375748636045216
  0.4547018023639282  0.0037035253720461  0.7375748636045216
  0.9547855462958736  0.9962785736525817  0.7375706203124679
  0.4771618625468221  0.2499723984387643  0.0106024487139038
  0.9221090165809684  0.2499856226523178  0.0130619867545150
  0.4221090165809684  0.7499856226523178  0.0130619867545150
  0.9771618625468221  0.7499723984387643  0.0106024487139038
  0.4221090165809684  0.2499856226523178  0.5130619867545150
  0.9771618625468221  0.2499723984387643  0.5106024487139038
  0.4771618625468221  0.7499723984387643  0.5106024487139038
  0.9221090165809684  0.7499856226523178  0.5130619867545150
  0.2161646167936979  0.5315731620752260  0.4612726680299986
  0.7161782600868776  0.4684217106423176  0.4612067356572140
  0.2161782600868776  0.9684217106423176  0.4612067356572140
  0.7161646167936979  0.0315731620752260  0.4612726680299986
  0.2161782600868776  0.4684217106423176  0.9612067356572140
  0.7161646167936979  0.5315731620752260  0.9612726680299986
  0.2161646167936979  0.0315731620752260  0.9612726680299986
  0.7161782600868776  0.9684217106423176  0.9612067356572140
 
  0.00000000E+00  0.00000000E+00  0.00000000E+00
  0.00000000E+00  0.00000000E+00  0.00000000E+00
  0.00000000E+00  0.00000000E+00  0.00000000E+00
  0.00000000E+00  0.00000000E+00  0.00000000E+00
  0.00000000E+00  0.00000000E+00  0.00000000E+00
  0.00000000E+00  0.00000000E+00  0.00000000E+00
  0.00000000E+00  0.00000000E+00  0.00000000E+00
  0.00000000E+00  0.00000000E+00  0.00000000E+00
  0.00000000E+00  0.00000000E+00  0.00000000E+00
  0.00000000E+00  0.00000000E+00  0.00000000E+00
  0.00000000E+00  0.00000000E+00  0.00000000E+00
  0.00000000E+00  0.00000000E+00  0.00000000E+00
  0.00000000E+00  0.00000000E+00  0.00000000E+00
  0.00000000E+00  0.00000000E+00  0.00000000E+00
  0.00000000E+00  0.00000000E+00  0.00000000E+00
  0.00000000E+00  0.00000000E+00  0.00000000E+00
  0.00000000E+00  0.00000000E+00  0.00000000E+00
  0.00000000E+00  0.00000000E+00  0.00000000E+00
  0.00000000E+00  0.00000000E+00  0.00000000E+00
  0.00000000E+00  0.00000000E+00  0.00000000E+00
  0.00000000E+00  0.00000000E+00  0.00000000E+00
  0.00000000E+00  0.00000000E+00  0.00000000E+00
  0.00000000E+00  0.00000000E+00  0.00000000E+00
  0.00000000E+00  0.00000000E+00  0.00000000E+00
  0.00000000E+00  0.00000000E+00  0.00000000E+00
  0.00000000E+00  0.00000000E+00  0.00000000E+00
  0.00000000E+00  0.00000000E+00  0.00000000E+00
  0.00000000E+00  0.00000000E+00  0.00000000E+00
  0.00000000E+00  0.00000000E+00  0.00000000E+00
  0.00000000E+00  0.00000000E+00  0.00000000E+00
  0.00000000E+00  0.00000000E+00  0.00000000E+00
  0.00000000E+00  0.00000000E+00  0.00000000E+00
  0.00000000E+00  0.00000000E+00  0.00000000E+00
  0.00000000E+00  0.00000000E+00  0.00000000E+00
  0.00000000E+00  0.00000000E+00  0.00000000E+00
  0.00000000E+00  0.00000000E+00  0.00000000E+00
  0.00000000E+00  0.00000000E+00  0.00000000E+00
  0.00000000E+00  0.00000000E+00  0.00000000E+00
  0.00000000E+00  0.00000000E+00  0.00000000E+00
  0.00000000E+00  0.00000000E+00  0.00000000E+00
  0.00000000E+00  0.00000000E+00  0.00000000E+00
  0.00000000E+00  0.00000000E+00  0.00000000E+00
  0.00000000E+00  0.00000000E+00  0.00000000E+00
  0.00000000E+00  0.00000000E+00  0.00000000E+00
  0.00000000E+00  0.00000000E+00  0.00000000E+00
  0.00000000E+00  0.00000000E+00  0.00000000E+00
  0.00000000E+00  0.00000000E+00  0.00000000E+00
  0.00000000E+00  0.00000000E+00  0.00000000E+00
  0.00000000E+00  0.00000000E+00  0.00000000E+00
  0.00000000E+00  0.00000000E+00  0.00000000E+00
  0.00000000E+00  0.00000000E+00  0.00000000E+00
  0.00000000E+00  0.00000000E+00  0.00000000E+00
  0.00000000E+00  0.00000000E+00  0.00000000E+00
  0.00000000E+00  0.00000000E+00  0.00000000E+00
  0.00000000E+00  0.00000000E+00  0.00000000E+00
  0.00000000E+00  0.00000000E+00  0.00000000E+00
  0.00000000E+00  0.00000000E+00  0.00000000E+00
  0.00000000E+00  0.00000000E+00  0.00000000E+00
  0.00000000E+00  0.00000000E+00  0.00000000E+00
  0.00000000E+00  0.00000000E+00  0.00000000E+00
  0.00000000E+00  0.00000000E+00  0.00000000E+00
  0.00000000E+00  0.00000000E+00  0.00000000E+00
  0.00000000E+00  0.00000000E+00  0.00000000E+00
  0.00000000E+00  0.00000000E+00  0.00000000E+00
  0.00000000E+00  0.00000000E+00  0.00000000E+00
  0.00000000E+00  0.00000000E+00  0.00000000E+00
  0.00000000E+00  0.00000000E+00  0.00000000E+00
  0.00000000E+00  0.00000000E+00  0.00000000E+00
  0.00000000E+00  0.00000000E+00  0.00000000E+00
  0.00000000E+00  0.00000000E+00  0.00000000E+00
  0.00000000E+00  0.00000000E+00  0.00000000E+00
  0.00000000E+00  0.00000000E+00  0.00000000E+00
  0.00000000E+00  0.00000000E+00  0.00000000E+00
  0.00000000E+00  0.00000000E+00  0.00000000E+00
  0.00000000E+00  0.00000000E+00  0.00000000E+00
  0.00000000E+00  0.00000000E+00  0.00000000E+00
  0.00000000E+00  0.00000000E+00  0.00000000E+00
  0.00000000E+00  0.00000000E+00  0.00000000E+00
  0.00000000E+00  0.00000000E+00  0.00000000E+00
  0.00000000E+00  0.00000000E+00  0.00000000E+00
  0.00000000E+00  0.00000000E+00  0.00000000E+00
  0.00000000E+00  0.00000000E+00  0.00000000E+00
  0.00000000E+00  0.00000000E+00  0.00000000E+00
  0.00000000E+00  0.00000000E+00  0.00000000E+00
  0.00000000E+00  0.00000000E+00  0.00000000E+00
  0.00000000E+00  0.00000000E+00  0.00000000E+00
  0.00000000E+00  0.00000000E+00  0.00000000E+00
  0.00000000E+00  0.00000000E+00  0.00000000E+00
  0.00000000E+00  0.00000000E+00  0.00000000E+00
  0.00000000E+00  0.00000000E+00  0.00000000E+00
  0.00000000E+00  0.00000000E+00  0.00000000E+00
  0.00000000E+00  0.00000000E+00  0.00000000E+00
  0.00000000E+00  0.00000000E+00  0.00000000E+00
  0.00000000E+00  0.00000000E+00  0.00000000E+00
  0.00000000E+00  0.00000000E+00  0.00000000E+00
  0.00000000E+00  0.00000000E+00  0.00000000E+00
