Automatically generated mesh: SCF=15, 0.005,284, GX, 3.84x3
    299  
Reciprocal lattice
    0.00000000000000    0.00000000000000    0.00000000000000             1
    0.16666666666667    0.00000000000000    0.00000000000000             8
    0.33333333333333    0.00000000000000    0.00000000000000             8
    0.50000000000000    0.00000000000000    0.00000000000000             4
    0.16666666666667    0.16666666666667    0.00000000000000             6
    0.33333333333333    0.16666666666667    0.00000000000000            24
    0.50000000000000    0.16666666666667    0.00000000000000            24
   -0.33333333333333    0.16666666666667    0.00000000000000            24
   -0.16666666666667    0.16666666666667    0.00000000000000            12
    0.33333333333333    0.33333333333333    0.00000000000000             6
    0.50000000000000    0.33333333333333    0.00000000000000            24
   -0.33333333333333    0.33333333333333    0.00000000000000            12
    0.50000000000000    0.50000000000000    0.00000000000000             3
    0.50000000000000    0.33333333333333    0.16666666666667            24
   -0.33333333333333    0.33333333333333    0.16666666666667            24
0.00000000  0.00000000  0.00000000   0.00
0.00176056  0.00000000  0.00176056   0.00
0.00352113  0.00000000  0.00352113   0.00
0.00528169  0.00000000  0.00528169   0.00
0.00704225  0.00000000  0.00704225   0.00
0.00880282  0.00000000  0.00880282   0.00
0.01056338  0.00000000  0.01056338   0.00
0.01232394  0.00000000  0.01232394   0.00
0.01408451  0.00000000  0.01408451   0.00
0.01584507  0.00000000  0.01584507   0.00
0.01760563  0.00000000  0.01760563   0.00
0.01936620  0.00000000  0.01936620   0.00
0.02112676  0.00000000  0.02112676   0.00
0.02288732  0.00000000  0.02288732   0.00
0.02464789  0.00000000  0.02464789   0.00
0.02640845  0.00000000  0.02640845   0.00
0.02816902  0.00000000  0.02816902   0.00
0.02992958  0.00000000  0.02992958   0.00
0.03169014  0.00000000  0.03169014   0.00
0.03345070  0.00000000  0.03345070   0.00
0.03521127  0.00000000  0.03521127   0.00
0.03697183  0.00000000  0.03697183   0.00
0.03873239  0.00000000  0.03873239   0.00
0.04049296  0.00000000  0.04049296   0.00
0.04225352  0.00000000  0.04225352   0.00
0.04401409  0.00000000  0.04401409   0.00
0.04577465  0.00000000  0.04577465   0.00
0.04753521  0.00000000  0.04753521   0.00
0.04929578  0.00000000  0.04929578   0.00
0.05105634  0.00000000  0.05105634   0.00
0.05281691  0.00000000  0.05281691   0.00
0.05457747  0.00000000  0.05457747   0.00
0.05633803  0.00000000  0.05633803   0.00
0.05809860  0.00000000  0.05809860   0.00
0.05985916  0.00000000  0.05985916   0.00
0.06161972  0.00000000  0.06161972   0.00
0.06338029  0.00000000  0.06338029   0.00
0.06514085  0.00000000  0.06514085   0.00
0.06690141  0.00000000  0.06690141   0.00
0.06866197  0.00000000  0.06866197   0.00
0.07042254  0.00000000  0.07042254   0.00
0.07218310  0.00000000  0.07218310   0.00
0.07394367  0.00000000  0.07394367   0.00
0.07570423  0.00000000  0.07570423   0.00
0.07746479  0.00000000  0.07746479   0.00
0.07922535  0.00000000  0.07922535   0.00
0.08098592  0.00000000  0.08098592   0.00
0.08274648  0.00000000  0.08274648   0.00
0.08450705  0.00000000  0.08450705   0.00
0.08626761  0.00000000  0.08626761   0.00
0.08802817  0.00000000  0.08802817   0.00
0.08978874  0.00000000  0.08978874   0.00
0.09154930  0.00000000  0.09154930   0.00
0.09330986  0.00000000  0.09330986   0.00
0.09507043  0.00000000  0.09507043   0.00
0.09683099  0.00000000  0.09683099   0.00
0.09859155  0.00000000  0.09859155   0.00
0.10035211  0.00000000  0.10035211   0.00
0.10211268  0.00000000  0.10211268   0.00
0.10387325  0.00000000  0.10387325   0.00
0.10563381  0.00000000  0.10563381   0.00
0.10739437  0.00000000  0.10739437   0.00
0.10915493  0.00000000  0.10915493   0.00
0.11091550  0.00000000  0.11091550   0.00
0.11267606  0.00000000  0.11267606   0.00
0.11443662  0.00000000  0.11443662   0.00
0.11619719  0.00000000  0.11619719   0.00
0.11795776  0.00000000  0.11795776   0.00
0.11971831  0.00000000  0.11971831   0.00
0.12147887  0.00000000  0.12147887   0.00
0.12323944  0.00000000  0.12323944   0.00
0.12500001  0.00000000  0.12500001   0.00
0.12676057  0.00000000  0.12676057   0.00
0.12852113  0.00000000  0.12852113   0.00
0.13028170  0.00000000  0.13028170   0.00
0.13204226  0.00000000  0.13204226   0.00
0.13380282  0.00000000  0.13380282   0.00
0.13556337  0.00000000  0.13556337   0.00
0.13732395  0.00000000  0.13732395   0.00
0.13908452  0.00000000  0.13908452   0.00
0.14084508  0.00000000  0.14084508   0.00
0.14260563  0.00000000  0.14260563   0.00
0.14436620  0.00000000  0.14436620   0.00
0.14612678  0.00000000  0.14612678   0.00
0.14788733  0.00000000  0.14788733   0.00
0.14964789  0.00000000  0.14964789   0.00
0.15140846  0.00000000  0.15140846   0.00
0.15316902  0.00000000  0.15316902   0.00
0.15492958  0.00000000  0.15492958   0.00
0.15669014  0.00000000  0.15669014   0.00
0.15845071  0.00000000  0.15845071   0.00
0.16021128  0.00000000  0.16021128   0.00
0.16197184  0.00000000  0.16197184   0.00
0.16373239  0.00000000  0.16373239   0.00
0.16549297  0.00000000  0.16549297   0.00
0.16725354  0.00000000  0.16725354   0.00
0.16901410  0.00000000  0.16901410   0.00
0.17077465  0.00000000  0.17077465   0.00
0.17253523  0.00000000  0.17253523   0.00
0.17429578  0.00000000  0.17429578   0.00
0.17605634  0.00000000  0.17605634   0.00
0.17781690  0.00000000  0.17781690   0.00
0.17957748  0.00000000  0.17957748   0.00
0.18133804  0.00000000  0.18133804   0.00
0.18309860  0.00000000  0.18309860   0.00
0.18485916  0.00000000  0.18485916   0.00
0.18661971  0.00000000  0.18661971   0.00
0.18838030  0.00000000  0.18838030   0.00
0.19014086  0.00000000  0.19014086   0.00
0.19190142  0.00000000  0.19190142   0.00
0.19366199  0.00000000  0.19366199   0.00
0.19542255  0.00000000  0.19542255   0.00
0.19718310  0.00000000  0.19718310   0.00
0.19894366  0.00000000  0.19894366   0.00
0.20070422  0.00000000  0.20070422   0.00
0.20246480  0.00000000  0.20246480   0.00
0.20422536  0.00000000  0.20422536   0.00
0.20598592  0.00000000  0.20598592   0.00
0.20774649  0.00000000  0.20774649   0.00
0.20950706  0.00000000  0.20950706   0.00
0.21126762  0.00000000  0.21126762   0.00
0.21302818  0.00000000  0.21302818   0.00
0.21478873  0.00000000  0.21478873   0.00
0.21654931  0.00000000  0.21654931   0.00
0.21830986  0.00000000  0.21830986   0.00
0.22007042  0.00000000  0.22007042   0.00
0.22183101  0.00000000  0.22183101   0.00
0.22359157  0.00000000  0.22359157   0.00
0.22535212  0.00000000  0.22535212   0.00
0.22711268  0.00000000  0.22711268   0.00
0.22887324  0.00000000  0.22887324   0.00
0.23063383  0.00000000  0.23063383   0.00
0.23239438  0.00000000  0.23239438   0.00
0.23415494  0.00000000  0.23415494   0.00
0.23591551  0.00000000  0.23591551   0.00
0.23767607  0.00000000  0.23767607   0.00
0.23943663  0.00000000  0.23943663   0.00
0.24119718  0.00000000  0.24119718   0.00
0.24295774  0.00000000  0.24295774   0.00
0.24471833  0.00000000  0.24471833   0.00
0.24647889  0.00000000  0.24647889   0.00
0.24823944  0.00000000  0.24823944   0.00
0.25000003  0.00000000  0.25000003   0.00
0.25176057  0.00000000  0.25176057   0.00
0.25352114  0.00000000  0.25352114   0.00
0.25528169  0.00000000  0.25528169   0.00
0.25704226  0.00000000  0.25704226   0.00
0.25880283  0.00000000  0.25880283   0.00
0.26056340  0.00000000  0.26056340   0.00
0.26232395  0.00000000  0.26232395   0.00
0.26408452  0.00000000  0.26408452   0.00
0.26584509  0.00000000  0.26584509   0.00
0.26760563  0.00000000  0.26760563   0.00
0.26936620  0.00000000  0.26936620   0.00
0.27112675  0.00000000  0.27112675   0.00
0.27288735  0.00000000  0.27288735   0.00
0.27464789  0.00000000  0.27464789   0.00
0.27640846  0.00000000  0.27640846   0.00
0.27816904  0.00000000  0.27816904   0.00
0.27992961  0.00000000  0.27992961   0.00
0.28169015  0.00000000  0.28169015   0.00
0.28345072  0.00000000  0.28345072   0.00
0.28521127  0.00000000  0.28521127   0.00
0.28697184  0.00000000  0.28697184   0.00
0.28873241  0.00000000  0.28873241   0.00
0.29049295  0.00000000  0.29049295   0.00
0.29225355  0.00000000  0.29225355   0.00
0.29401410  0.00000000  0.29401410   0.00
0.29577467  0.00000000  0.29577467   0.00
0.29753521  0.00000000  0.29753521   0.00
0.29929578  0.00000000  0.29929578   0.00
0.30105636  0.00000000  0.30105636   0.00
0.30281693  0.00000000  0.30281693   0.00
0.30457747  0.00000000  0.30457747   0.00
0.30633804  0.00000000  0.30633804   0.00
0.30809861  0.00000000  0.30809861   0.00
0.30985916  0.00000000  0.30985916   0.00
0.31161973  0.00000000  0.31161973   0.00
0.31338027  0.00000000  0.31338027   0.00
0.31514087  0.00000000  0.31514087   0.00
0.31690142  0.00000000  0.31690142   0.00
0.31866199  0.00000000  0.31866199   0.00
0.32042256  0.00000000  0.32042256   0.00
0.32218313  0.00000000  0.32218313   0.00
0.32394367  0.00000000  0.32394367   0.00
0.32570425  0.00000000  0.32570425   0.00
0.32746479  0.00000000  0.32746479   0.00
0.32922536  0.00000000  0.32922536   0.00
0.33098593  0.00000000  0.33098593   0.00
0.33274648  0.00000000  0.33274648   0.00
0.33450708  0.00000000  0.33450708   0.00
0.33626762  0.00000000  0.33626762   0.00
0.33802819  0.00000000  0.33802819   0.00
0.33978873  0.00000000  0.33978873   0.00
0.34154931  0.00000000  0.34154931   0.00
0.34330988  0.00000000  0.34330988   0.00
0.34507045  0.00000000  0.34507045   0.00
0.34683099  0.00000000  0.34683099   0.00
0.34859157  0.00000000  0.34859157   0.00
0.35035214  0.00000000  0.35035214   0.00
0.35211268  0.00000000  0.35211268   0.00
0.35387325  0.00000000  0.35387325   0.00
0.35563380  0.00000000  0.35563380   0.00
0.35739437  0.00000000  0.35739437   0.00
0.35915497  0.00000000  0.35915497   0.00
0.36091551  0.00000000  0.36091551   0.00
0.36267608  0.00000000  0.36267608   0.00
0.36443663  0.00000000  0.36443663   0.00
0.36619720  0.00000000  0.36619720   0.00
0.36795777  0.00000000  0.36795777   0.00
0.36971831  0.00000000  0.36971831   0.00
0.37147889  0.00000000  0.37147889   0.00
0.37323943  0.00000000  0.37323943   0.00
0.37500003  0.00000000  0.37500003   0.00
0.37676060  0.00000000  0.37676060   0.00
0.37852114  0.00000000  0.37852114   0.00
0.38028172  0.00000000  0.38028172   0.00
0.38204226  0.00000000  0.38204226   0.00
0.38380283  0.00000000  0.38380283   0.00
0.38556337  0.00000000  0.38556337   0.00
0.38732398  0.00000000  0.38732398   0.00
0.38908455  0.00000000  0.38908455   0.00
0.39084509  0.00000000  0.39084509   0.00
0.39260566  0.00000000  0.39260566   0.00
0.39436620  0.00000000  0.39436620   0.00
0.39612678  0.00000000  0.39612678   0.00
0.39788732  0.00000000  0.39788732   0.00
0.39964789  0.00000000  0.39964789   0.00
0.40140843  0.00000000  0.40140843   0.00
0.40316904  0.00000000  0.40316904   0.00
0.40492961  0.00000000  0.40492961   0.00
0.40669015  0.00000000  0.40669015   0.00
0.40845072  0.00000000  0.40845072   0.00
0.41021127  0.00000000  0.41021127   0.00
0.41197184  0.00000000  0.41197184   0.00
0.41373241  0.00000000  0.41373241   0.00
0.41549298  0.00000000  0.41549298   0.00
0.41725355  0.00000000  0.41725355   0.00
0.41901413  0.00000000  0.41901413   0.00
0.42077467  0.00000000  0.42077467   0.00
0.42253524  0.00000000  0.42253524   0.00
0.42429578  0.00000000  0.42429578   0.00
0.42605636  0.00000000  0.42605636   0.00
0.42781690  0.00000000  0.42781690   0.00
0.42957747  0.00000000  0.42957747   0.00
0.43133807  0.00000000  0.43133807   0.00
0.43309861  0.00000000  0.43309861   0.00
0.43485919  0.00000000  0.43485919   0.00
0.43661973  0.00000000  0.43661973   0.00
0.43838030  0.00000000  0.43838030   0.00
0.44014084  0.00000000  0.44014084   0.00
0.44190142  0.00000000  0.44190142   0.00
0.44366202  0.00000000  0.44366202   0.00
0.44542256  0.00000000  0.44542256   0.00
0.44718313  0.00000000  0.44718313   0.00
0.44894367  0.00000000  0.44894367   0.00
0.45070425  0.00000000  0.45070425   0.00
0.45246479  0.00000000  0.45246479   0.00
0.45422536  0.00000000  0.45422536   0.00
0.45598593  0.00000000  0.45598593   0.00
0.45774648  0.00000000  0.45774648   0.00
0.45950708  0.00000000  0.45950708   0.00
0.46126765  0.00000000  0.46126765   0.00
0.46302819  0.00000000  0.46302819   0.00
0.46478876  0.00000000  0.46478876   0.00
0.46654931  0.00000000  0.46654931   0.00
0.46830988  0.00000000  0.46830988   0.00
0.47007042  0.00000000  0.47007042   0.00
0.47183102  0.00000000  0.47183102   0.00
0.47359160  0.00000000  0.47359160   0.00
0.47535214  0.00000000  0.47535214   0.00
0.47711271  0.00000000  0.47711271   0.00
0.47887325  0.00000000  0.47887325   0.00
0.48063383  0.00000000  0.48063383   0.00
0.48239437  0.00000000  0.48239437   0.00
0.48415494  0.00000000  0.48415494   0.00
0.48591548  0.00000000  0.48591548   0.00
0.48767608  0.00000000  0.48767608   0.00
0.48943666  0.00000000  0.48943666   0.00
0.49119720  0.00000000  0.49119720   0.00
0.49295777  0.00000000  0.49295777   0.00
0.49471831  0.00000000  0.49471831   0.00
0.49647889  0.00000000  0.49647889   0.00
0.49823943  0.00000000  0.49823943   0.00
0.50000006  0.00000000  0.50000006   0.00
