C N H Pb I                              
   1.00000000000000     
    12.5768374277686394    0.0019159116494978    0.1381987933539664
     0.0011956322447466   12.4575380825249127   -0.0007464134870236
     0.1394107043392118    0.0000890449825412   12.7474206252920563
   C    N    H    Pb   I 
     8     8    48     8    24
Direct
  0.1981092533760958  0.2499129249795331  0.2271785803004533
  0.6958790114492004  0.2499036252490754  0.2306521283806404
  0.1958790114492004  0.7499036252490754  0.2306521283806404
  0.6981092533760958  0.7499129249795331  0.2271785803004533
  0.1981092533760958  0.2499129249795331  0.7271785803004533
  0.6958790114492004  0.2499036252490754  0.7306521283806404
  0.1958790114492004  0.7499036252490754  0.7306521283806404
  0.6981092533760958  0.7499129249795331  0.7271785803004533
  0.3048440899029998  0.2500071683322389  0.2739825341917381
  0.8042303479304351  0.2500001129009277  0.2737860587568690
  0.3042303479304351  0.7500001129009277  0.2737860587568690
  0.8048440899029998  0.7500071683322389  0.2739825341917381
  0.3048440899029998  0.2500071683322389  0.7739825341917381
  0.8042303479304351  0.2500001129009277  0.7737860587568690
  0.3042303479304351  0.7500001129009277  0.7737860587568690
  0.8048440899029998  0.7500071683322389  0.7739825341917381
  0.2076990438548876  0.2498209484971170  0.1412573659374985
  0.7024512906186189  0.2498212441509438  0.1445198859559298
  0.2024512906186189  0.7498212441509438  0.1445198859559298
  0.7076990438548876  0.7498209484971170  0.1412573659374985
  0.2076990438548876  0.2498209484971170  0.6412573659374985
  0.7024512906186189  0.2498212441509438  0.6445198859559298
  0.2024512906186189  0.7498212441509438  0.6445198859559298
  0.7076990438548876  0.7498209484971170  0.6412573659374985
  0.1550347952983344  0.3223695341122337  0.2530819076750177
  0.6536408180585127  0.3223348392685210  0.2579487308176169
  0.1536408180585127  0.8223348392685210  0.2579487308176169
  0.6550347952983344  0.8223695341122337  0.2530819076750177
  0.1550347952983344  0.3223695341122337  0.7530819076750177
  0.6536408180585127  0.3223348392685210  0.7579487308176169
  0.1536408180585127  0.8223348392685210  0.7579487308176169
  0.6550347952983344  0.8223695341122337  0.7530819076750177
  0.1551327430313663  0.1774734101217987  0.2532255172073548
  0.6537529242471010  0.1774787368285260  0.2580758962132705
  0.1537529242471010  0.6774787368285260  0.2580758962132705
  0.6551327430313663  0.6774734101217987  0.2532255172073548
  0.1551327430313663  0.1774734101217987  0.7532255172073548
  0.6537529242471010  0.1774787368285260  0.7580758962132705
  0.1537529242471010  0.6774787368285260  0.7580758962132705
  0.6551327430313663  0.6774734101217987  0.7532255172073548
  0.3487945330436375  0.3179114727482428  0.2515856136446430
  0.8474746217097717  0.3178370930662027  0.2499273683218348
  0.3474746217097717  0.8178370930662027  0.2499273683218348
  0.8487945330436375  0.8179114727482428  0.2515856136446430
  0.3487945330436375  0.3179114727482428  0.7515856136446430
  0.8474746217097717  0.3178370930662027  0.7499273683218348
  0.3474746217097717  0.8178370930662027  0.7499273683218348
  0.8487945330436375  0.8179114727482428  0.7515856136446430
  0.3488583804698848  0.1820692966307860  0.2517285981215238
  0.8475522200371941  0.1821404783118794  0.2500532015336034
  0.3475522200371941  0.6821404783118794  0.2500532015336034
  0.8488583804698848  0.6820692966307860  0.2517285981215238
  0.3488583804698848  0.1820692966307860  0.7517285981215238
  0.8475522200371941  0.1821404783118794  0.7500532015336034
  0.3475522200371941  0.6821404783118794  0.7500532015336034
  0.8488583804698848  0.6820692966307860  0.7517285981215238
  0.3019178006667147  0.2501031614343532  0.3556589261513352
  0.8044223452793133  0.2500838820045885  0.3555595631883293
  0.3044223452793133  0.7500838820045885  0.3555595631883293
  0.8019178006667147  0.7501031614343532  0.3556589261513352
  0.3019178006667147  0.2501031614343532  0.8556589261513352
  0.8044223452793133  0.2500838820045885  0.8555595631883293
  0.3044223452793133  0.7500838820045885  0.8555595631883293
  0.8019178006667147  0.7501031614343532  0.8556589261513352
  0.4724427535426869  0.5001716340429212  0.4888112046271971
  0.9724407984150361  0.4998079556869399  0.4888116894024108
  0.4724407984150361  0.9998079556869470  0.4888116894024108
  0.9724427535426869  0.0001716340429283  0.4888112046271971
  0.4724427535426869  0.5001716340429212  0.9888112046271971
  0.9724407984150361  0.4998079556869399  0.9888116894024108
  0.4724407984150361  0.9998079556869470  0.9888116894024108
  0.9724427535426869  0.0001716340429212  0.9888112046271971
  0.4547463840094039  0.5000878723071978  0.2375721656956244
  0.9547409646503979  0.4998942267174300  0.2375733182213651
  0.4547409646503979  0.9998942267174300  0.2375733182213651
  0.9547463840094039  0.0000878723071978  0.2375721656956244
  0.4547463840094039  0.5000878723071978  0.7375721656956244
  0.9547409646503979  0.4998942267174300  0.7375733182213651
  0.4547409646503979  0.9998942267174300  0.7375733182213651
  0.9547463840094039  0.0000878723071978  0.7375721656956244
  0.4531382438911393  0.2499783186063453  0.0111739596959026
  0.9461326352366513  0.2499797024847368  0.0124904757725162
  0.4461326352366513  0.7499797024847368  0.0124904757725162
  0.9531382438911393  0.7499783186063453  0.0111739596959026
  0.4531382438911393  0.2499783186063453  0.5111739596959026
  0.9461326352366513  0.2499797024847368  0.5124904757725162
  0.4461326352366513  0.7499797024847368  0.5124904757725162
  0.9531382438911393  0.7499783186063453  0.5111739596959026
  0.2161722839798870  0.4958166054205861  0.4612397012193199
  0.7161705929006885  0.5041782672969575  0.4612397024678927
  0.2161705929006885  0.0041782672969575  0.4612397024678927
  0.7161722839798870  0.9958166054205861  0.4612397012193199
  0.2161722839798870  0.4958166054205861  0.9612397012193199
  0.7161705929006885  0.5041782672969575  0.9612397024678927
  0.2161705929006885  0.0041782672969575  0.9612397024678927
  0.7161722839798870  0.9958166054205861  0.9612397012193199
 
  0.00000000E+00  0.00000000E+00  0.00000000E+00
  0.00000000E+00  0.00000000E+00  0.00000000E+00
  0.00000000E+00  0.00000000E+00  0.00000000E+00
  0.00000000E+00  0.00000000E+00  0.00000000E+00
  0.00000000E+00  0.00000000E+00  0.00000000E+00
  0.00000000E+00  0.00000000E+00  0.00000000E+00
  0.00000000E+00  0.00000000E+00  0.00000000E+00
  0.00000000E+00  0.00000000E+00  0.00000000E+00
  0.00000000E+00  0.00000000E+00  0.00000000E+00
  0.00000000E+00  0.00000000E+00  0.00000000E+00
  0.00000000E+00  0.00000000E+00  0.00000000E+00
  0.00000000E+00  0.00000000E+00  0.00000000E+00
  0.00000000E+00  0.00000000E+00  0.00000000E+00
  0.00000000E+00  0.00000000E+00  0.00000000E+00
  0.00000000E+00  0.00000000E+00  0.00000000E+00
  0.00000000E+00  0.00000000E+00  0.00000000E+00
  0.00000000E+00  0.00000000E+00  0.00000000E+00
  0.00000000E+00  0.00000000E+00  0.00000000E+00
  0.00000000E+00  0.00000000E+00  0.00000000E+00
  0.00000000E+00  0.00000000E+00  0.00000000E+00
  0.00000000E+00  0.00000000E+00  0.00000000E+00
  0.00000000E+00  0.00000000E+00  0.00000000E+00
  0.00000000E+00  0.00000000E+00  0.00000000E+00
  0.00000000E+00  0.00000000E+00  0.00000000E+00
  0.00000000E+00  0.00000000E+00  0.00000000E+00
  0.00000000E+00  0.00000000E+00  0.00000000E+00
  0.00000000E+00  0.00000000E+00  0.00000000E+00
  0.00000000E+00  0.00000000E+00  0.00000000E+00
  0.00000000E+00  0.00000000E+00  0.00000000E+00
  0.00000000E+00  0.00000000E+00  0.00000000E+00
  0.00000000E+00  0.00000000E+00  0.00000000E+00
  0.00000000E+00  0.00000000E+00  0.00000000E+00
  0.00000000E+00  0.00000000E+00  0.00000000E+00
  0.00000000E+00  0.00000000E+00  0.00000000E+00
  0.00000000E+00  0.00000000E+00  0.00000000E+00
  0.00000000E+00  0.00000000E+00  0.00000000E+00
  0.00000000E+00  0.00000000E+00  0.00000000E+00
  0.00000000E+00  0.00000000E+00  0.00000000E+00
  0.00000000E+00  0.00000000E+00  0.00000000E+00
  0.00000000E+00  0.00000000E+00  0.00000000E+00
  0.00000000E+00  0.00000000E+00  0.00000000E+00
  0.00000000E+00  0.00000000E+00  0.00000000E+00
  0.00000000E+00  0.00000000E+00  0.00000000E+00
  0.00000000E+00  0.00000000E+00  0.00000000E+00
  0.00000000E+00  0.00000000E+00  0.00000000E+00
  0.00000000E+00  0.00000000E+00  0.00000000E+00
  0.00000000E+00  0.00000000E+00  0.00000000E+00
  0.00000000E+00  0.00000000E+00  0.00000000E+00
  0.00000000E+00  0.00000000E+00  0.00000000E+00
  0.00000000E+00  0.00000000E+00  0.00000000E+00
  0.00000000E+00  0.00000000E+00  0.00000000E+00
  0.00000000E+00  0.00000000E+00  0.00000000E+00
  0.00000000E+00  0.00000000E+00  0.00000000E+00
  0.00000000E+00  0.00000000E+00  0.00000000E+00
  0.00000000E+00  0.00000000E+00  0.00000000E+00
  0.00000000E+00  0.00000000E+00  0.00000000E+00
  0.00000000E+00  0.00000000E+00  0.00000000E+00
  0.00000000E+00  0.00000000E+00  0.00000000E+00
  0.00000000E+00  0.00000000E+00  0.00000000E+00
  0.00000000E+00  0.00000000E+00  0.00000000E+00
  0.00000000E+00  0.00000000E+00  0.00000000E+00
  0.00000000E+00  0.00000000E+00  0.00000000E+00
  0.00000000E+00  0.00000000E+00  0.00000000E+00
  0.00000000E+00  0.00000000E+00  0.00000000E+00
  0.00000000E+00  0.00000000E+00  0.00000000E+00
  0.00000000E+00  0.00000000E+00  0.00000000E+00
  0.00000000E+00  0.00000000E+00  0.00000000E+00
  0.00000000E+00  0.00000000E+00  0.00000000E+00
  0.00000000E+00  0.00000000E+00  0.00000000E+00
  0.00000000E+00  0.00000000E+00  0.00000000E+00
  0.00000000E+00  0.00000000E+00  0.00000000E+00
  0.00000000E+00  0.00000000E+00  0.00000000E+00
  0.00000000E+00  0.00000000E+00  0.00000000E+00
  0.00000000E+00  0.00000000E+00  0.00000000E+00
  0.00000000E+00  0.00000000E+00  0.00000000E+00
  0.00000000E+00  0.00000000E+00  0.00000000E+00
  0.00000000E+00  0.00000000E+00  0.00000000E+00
  0.00000000E+00  0.00000000E+00  0.00000000E+00
  0.00000000E+00  0.00000000E+00  0.00000000E+00
  0.00000000E+00  0.00000000E+00  0.00000000E+00
  0.00000000E+00  0.00000000E+00  0.00000000E+00
  0.00000000E+00  0.00000000E+00  0.00000000E+00
  0.00000000E+00  0.00000000E+00  0.00000000E+00
  0.00000000E+00  0.00000000E+00  0.00000000E+00
  0.00000000E+00  0.00000000E+00  0.00000000E+00
  0.00000000E+00  0.00000000E+00  0.00000000E+00
  0.00000000E+00  0.00000000E+00  0.00000000E+00
  0.00000000E+00  0.00000000E+00  0.00000000E+00
  0.00000000E+00  0.00000000E+00  0.00000000E+00
  0.00000000E+00  0.00000000E+00  0.00000000E+00
  0.00000000E+00  0.00000000E+00  0.00000000E+00
  0.00000000E+00  0.00000000E+00  0.00000000E+00
  0.00000000E+00  0.00000000E+00  0.00000000E+00
  0.00000000E+00  0.00000000E+00  0.00000000E+00
  0.00000000E+00  0.00000000E+00  0.00000000E+00
  0.00000000E+00  0.00000000E+00  0.00000000E+00
