Automatically generated mesh SCF: 112, 403, 6.29,6.27,6.30 0,0.5,0.5-0.5,0.5,0.5-0.5,0,0.5-0.5,0.5,0.5-0.5,0.5,0
     515  
Reciprocal lattice
    0.00000000000000    0.00000000000000    0.00000000000000             1
    0.16666666666667    0.00000000000000    0.00000000000000             2
    0.33333333333333    0.00000000000000    0.00000000000000             2
    0.50000000000000    0.00000000000000    0.00000000000000             1
    0.00000000000000    0.16666666666667    0.00000000000000             2
    0.16666666666667    0.16666666666667    0.00000000000000             2
    0.33333333333333    0.16666666666667    0.00000000000000             2
    0.50000000000000    0.16666666666667    0.00000000000000             2
   -0.33333333333333    0.16666666666667   -0.00000000000000             2
   -0.16666666666667    0.16666666666667   -0.00000000000000             2
    0.00000000000000    0.33333333333333    0.00000000000000             2
    0.16666666666667    0.33333333333333    0.00000000000000             2
    0.33333333333333    0.33333333333333    0.00000000000000             2
    0.50000000000000    0.33333333333333    0.00000000000000             2
   -0.33333333333333    0.33333333333333    0.00000000000000             2
   -0.16666666666667    0.33333333333333   -0.00000000000000             2
    0.00000000000000    0.50000000000000    0.00000000000000             1
    0.16666666666667    0.50000000000000    0.00000000000000             2
    0.33333333333333    0.50000000000000    0.00000000000000             2
    0.50000000000000    0.50000000000000    0.00000000000000             1
    0.00000000000000    0.00000000000000    0.16666666666667             2
    0.16666666666667    0.00000000000000    0.16666666666667             2
    0.33333333333333    0.00000000000000    0.16666666666667             2
    0.50000000000000    0.00000000000000    0.16666666666667             2
   -0.33333333333333   -0.00000000000000    0.16666666666667             2
   -0.16666666666667   -0.00000000000000    0.16666666666667             2
    0.00000000000000    0.16666666666667    0.16666666666667             2
    0.16666666666667    0.16666666666667    0.16666666666667             2
    0.33333333333333    0.16666666666667    0.16666666666667             2
    0.50000000000000    0.16666666666667    0.16666666666667             2
   -0.33333333333333    0.16666666666667    0.16666666666667             2
   -0.16666666666667    0.16666666666667    0.16666666666667             2
    0.00000000000000    0.33333333333333    0.16666666666667             2
    0.16666666666667    0.33333333333333    0.16666666666667             2
    0.33333333333333    0.33333333333333    0.16666666666667             2
    0.50000000000000    0.33333333333333    0.16666666666667             2
   -0.33333333333333    0.33333333333333    0.16666666666667             2
   -0.16666666666667    0.33333333333333    0.16666666666667             2
    0.00000000000000    0.50000000000000    0.16666666666667             2
    0.16666666666667    0.50000000000000    0.16666666666667             2
    0.33333333333333    0.50000000000000    0.16666666666667             2
    0.50000000000000    0.50000000000000    0.16666666666667             2
   -0.33333333333333    0.50000000000000    0.16666666666667             2
   -0.16666666666667    0.50000000000000    0.16666666666667             2
    0.00000000000000   -0.33333333333333    0.16666666666667             2
    0.16666666666667   -0.33333333333333    0.16666666666667             2
    0.33333333333333   -0.33333333333333    0.16666666666667             2
    0.50000000000000   -0.33333333333333    0.16666666666667             2
   -0.33333333333333   -0.33333333333333    0.16666666666667             2
   -0.16666666666667   -0.33333333333333    0.16666666666667             2
    0.00000000000000   -0.16666666666667    0.16666666666667             2
    0.16666666666667   -0.16666666666667    0.16666666666667             2
    0.33333333333333   -0.16666666666667    0.16666666666667             2
    0.50000000000000   -0.16666666666667    0.16666666666667             2
   -0.33333333333333   -0.16666666666667    0.16666666666667             2
   -0.16666666666667   -0.16666666666667    0.16666666666667             2
    0.00000000000000    0.00000000000000    0.33333333333333             2
    0.16666666666667    0.00000000000000    0.33333333333333             2
    0.33333333333333    0.00000000000000    0.33333333333333             2
    0.50000000000000    0.00000000000000    0.33333333333333             2
   -0.33333333333333   -0.00000000000000    0.33333333333333             2
   -0.16666666666667   -0.00000000000000    0.33333333333333             2
    0.00000000000000    0.16666666666667    0.33333333333333             2
    0.16666666666667    0.16666666666667    0.33333333333333             2
    0.33333333333333    0.16666666666667    0.33333333333333             2
    0.50000000000000    0.16666666666667    0.33333333333333             2
   -0.33333333333333    0.16666666666667    0.33333333333333             2
   -0.16666666666667    0.16666666666667    0.33333333333333             2
    0.00000000000000    0.33333333333333    0.33333333333333             2
    0.16666666666667    0.33333333333333    0.33333333333333             2
    0.33333333333333    0.33333333333333    0.33333333333333             2
    0.50000000000000    0.33333333333333    0.33333333333333             2
   -0.33333333333333    0.33333333333333    0.33333333333333             2
   -0.16666666666667    0.33333333333333    0.33333333333333             2
    0.00000000000000    0.50000000000000    0.33333333333333             2
    0.16666666666667    0.50000000000000    0.33333333333333             2
    0.33333333333333    0.50000000000000    0.33333333333333             2
    0.50000000000000    0.50000000000000    0.33333333333333             2
   -0.33333333333333    0.50000000000000    0.33333333333333             2
   -0.16666666666667    0.50000000000000    0.33333333333333             2
    0.00000000000000   -0.33333333333333    0.33333333333333             2
    0.16666666666667   -0.33333333333333    0.33333333333333             2
    0.33333333333333   -0.33333333333333    0.33333333333333             2
    0.50000000000000   -0.33333333333333    0.33333333333333             2
   -0.33333333333333   -0.33333333333333    0.33333333333333             2
   -0.16666666666667   -0.33333333333333    0.33333333333333             2
    0.00000000000000   -0.16666666666667    0.33333333333333             2
    0.16666666666667   -0.16666666666667    0.33333333333333             2
    0.33333333333333   -0.16666666666667    0.33333333333333             2
    0.50000000000000   -0.16666666666667    0.33333333333333             2
   -0.33333333333333   -0.16666666666667    0.33333333333333             2
   -0.16666666666667   -0.16666666666667    0.33333333333333             2
    0.00000000000000    0.00000000000000    0.50000000000000             1
    0.16666666666667    0.00000000000000    0.50000000000000             2
    0.33333333333333    0.00000000000000    0.50000000000000             2
    0.50000000000000    0.00000000000000    0.50000000000000             1
    0.00000000000000    0.16666666666667    0.50000000000000             2
    0.16666666666667    0.16666666666667    0.50000000000000             2
    0.33333333333333    0.16666666666667    0.50000000000000             2
    0.50000000000000    0.16666666666667    0.50000000000000             2
   -0.33333333333333    0.16666666666667    0.50000000000000             2
   -0.16666666666667    0.16666666666667    0.50000000000000             2
    0.00000000000000    0.33333333333333    0.50000000000000             2
    0.16666666666667    0.33333333333333    0.50000000000000             2
    0.33333333333333    0.33333333333333    0.50000000000000             2
    0.50000000000000    0.33333333333333    0.50000000000000             2
   -0.33333333333333    0.33333333333333    0.50000000000000             2
   -0.16666666666667    0.33333333333333    0.50000000000000             2
    0.00000000000000    0.50000000000000    0.50000000000000             1
    0.16666666666667    0.50000000000000    0.50000000000000             2
    0.33333333333333    0.50000000000000    0.50000000000000             2
    0.50000000000000    0.50000000000000    0.50000000000000             1
0.00000000  0.50000000  0.50000000   0.00
0.00495049  0.50000000  0.50000000   0.00
0.00990099  0.50000000  0.50000000   0.00
0.01485148  0.50000000  0.50000000   0.00
0.01980198  0.50000000  0.50000000   0.00
0.02475248  0.50000000  0.50000000   0.00
0.02970297  0.50000000  0.50000000   0.00
0.03465347  0.50000000  0.50000000   0.00
0.03960396  0.50000000  0.50000000   0.00
0.04455445  0.50000000  0.50000000   0.00
0.04950495  0.50000000  0.50000000   0.00
0.05445544  0.50000000  0.50000000   0.00
0.05940594  0.50000000  0.50000000   0.00
0.06435643  0.50000000  0.50000000   0.00
0.06930693  0.50000000  0.50000000   0.00
0.07425743  0.50000000  0.50000000   0.00
0.07920792  0.50000000  0.50000000   0.00
0.08415841  0.50000000  0.50000000   0.00
0.08910891  0.50000000  0.50000000   0.00
0.09405941  0.50000000  0.50000000   0.00
0.09900990  0.50000000  0.50000000   0.00
0.10396039  0.50000000  0.50000000   0.00
0.10891089  0.50000000  0.50000000   0.00
0.11386138  0.50000000  0.50000000   0.00
0.11881188  0.50000000  0.50000000   0.00
0.12376238  0.50000000  0.50000000   0.00
0.12871286  0.50000000  0.50000000   0.00
0.13366337  0.50000000  0.50000000   0.00
0.13861386  0.50000000  0.50000000   0.00
0.14356436  0.50000000  0.50000000   0.00
0.14851485  0.50000000  0.50000000   0.00
0.15346535  0.50000000  0.50000000   0.00
0.15841584  0.50000000  0.50000000   0.00
0.16336633  0.50000000  0.50000000   0.00
0.16831683  0.50000000  0.50000000   0.00
0.17326732  0.50000000  0.50000000   0.00
0.17821781  0.50000000  0.50000000   0.00
0.18316831  0.50000000  0.50000000   0.00
0.18811882  0.50000000  0.50000000   0.00
0.19306931  0.50000000  0.50000000   0.00
0.19801980  0.50000000  0.50000000   0.00
0.20297030  0.50000000  0.50000000   0.00
0.20792079  0.50000000  0.50000000   0.00
0.21287128  0.50000000  0.50000000   0.00
0.21782178  0.50000000  0.50000000   0.00
0.22277227  0.50000000  0.50000000   0.00
0.22772276  0.50000000  0.50000000   0.00
0.23267326  0.50000000  0.50000000   0.00
0.23762375  0.50000000  0.50000000   0.00
0.24257426  0.50000000  0.50000000   0.00
0.24752475  0.50000000  0.50000000   0.00
0.25247523  0.50000000  0.50000000   0.00
0.25742573  0.50000000  0.50000000   0.00
0.26237622  0.50000000  0.50000000   0.00
0.26732674  0.50000000  0.50000000   0.00
0.27227724  0.50000000  0.50000000   0.00
0.27722773  0.50000000  0.50000000   0.00
0.28217822  0.50000000  0.50000000   0.00
0.28712872  0.50000000  0.50000000   0.00
0.29207921  0.50000000  0.50000000   0.00
0.29702970  0.50000000  0.50000000   0.00
0.30198020  0.50000000  0.50000000   0.00
0.30693069  0.50000000  0.50000000   0.00
0.31188118  0.50000000  0.50000000   0.00
0.31683168  0.50000000  0.50000000   0.00
0.32178217  0.50000000  0.50000000   0.00
0.32673267  0.50000000  0.50000000   0.00
0.33168316  0.50000000  0.50000000   0.00
0.33663365  0.50000000  0.50000000   0.00
0.34158415  0.50000000  0.50000000   0.00
0.34653464  0.50000000  0.50000000   0.00
0.35148513  0.50000000  0.50000000   0.00
0.35643563  0.50000000  0.50000000   0.00
0.36138612  0.50000000  0.50000000   0.00
0.36633661  0.50000000  0.50000000   0.00
0.37128714  0.50000000  0.50000000   0.00
0.37623763  0.50000000  0.50000000   0.00
0.38118812  0.50000000  0.50000000   0.00
0.38613862  0.50000000  0.50000000   0.00
0.39108911  0.50000000  0.50000000   0.00
0.39603961  0.50000000  0.50000000   0.00
0.40099010  0.50000000  0.50000000   0.00
0.40594059  0.50000000  0.50000000   0.00
0.41089109  0.50000000  0.50000000   0.00
0.41584158  0.50000000  0.50000000   0.00
0.42079207  0.50000000  0.50000000   0.00
0.42574257  0.50000000  0.50000000   0.00
0.43069306  0.50000000  0.50000000   0.00
0.43564355  0.50000000  0.50000000   0.00
0.44059405  0.50000000  0.50000000   0.00
0.44554454  0.50000000  0.50000000   0.00
0.45049503  0.50000000  0.50000000   0.00
0.45544553  0.50000000  0.50000000   0.00
0.46039602  0.50000000  0.50000000   0.00
0.46534652  0.50000000  0.50000000   0.00
0.47029701  0.50000000  0.50000000   0.00
0.47524750  0.50000000  0.50000000   0.00
0.48019803  0.50000000  0.50000000   0.00
0.48514852  0.50000000  0.50000000   0.00
0.49009901  0.50000000  0.50000000   0.00
0.49504951  0.50000000  0.50000000   0.00
0.50000000  0.50000000  0.50000000   0.00
0.50000000  0.49504951  0.50000000   0.00
0.50000000  0.49009901  0.50000000   0.00
0.50000000  0.48514852  0.50000000   0.00
0.50000000  0.48019803  0.50000000   0.00
0.50000000  0.47524753  0.50000000   0.00
0.50000000  0.47029704  0.50000000   0.00
0.50000000  0.46534654  0.50000000   0.00
0.50000000  0.46039605  0.50000000   0.00
0.50000000  0.45544556  0.50000000   0.00
0.50000000  0.45049506  0.50000000   0.00
0.50000000  0.44554454  0.50000000   0.00
0.50000000  0.44059408  0.50000000   0.00
0.50000000  0.43564355  0.50000000   0.00
0.50000000  0.43069306  0.50000000   0.00
0.50000000  0.42574257  0.50000000   0.00
0.50000000  0.42079207  0.50000000   0.00
0.50000000  0.41584158  0.50000000   0.00
0.50000000  0.41089109  0.50000000   0.00
0.50000000  0.40594059  0.50000000   0.00
0.50000000  0.40099010  0.50000000   0.00
0.50000000  0.39603961  0.50000000   0.00
0.50000000  0.39108911  0.50000000   0.00
0.50000000  0.38613862  0.50000000   0.00
0.50000000  0.38118812  0.50000000   0.00
0.50000000  0.37623763  0.50000000   0.00
0.50000000  0.37128714  0.50000000   0.00
0.50000000  0.36633664  0.50000000   0.00
0.50000000  0.36138612  0.50000000   0.00
0.50000000  0.35643566  0.50000000   0.00
0.50000000  0.35148513  0.50000000   0.00
0.50000000  0.34653467  0.50000000   0.00
0.50000000  0.34158415  0.50000000   0.00
0.50000000  0.33663368  0.50000000   0.00
0.50000000  0.33168316  0.50000000   0.00
0.50000000  0.32673270  0.50000000   0.00
0.50000000  0.32178217  0.50000000   0.00
0.50000000  0.31683171  0.50000000   0.00
0.50000000  0.31188118  0.50000000   0.00
0.50000000  0.30693069  0.50000000   0.00
0.50000000  0.30198020  0.50000000   0.00
0.50000000  0.29702970  0.50000000   0.00
0.50000000  0.29207921  0.50000000   0.00
0.50000000  0.28712872  0.50000000   0.00
0.50000000  0.28217822  0.50000000   0.00
0.50000000  0.27722773  0.50000000   0.00
0.50000000  0.27227724  0.50000000   0.00
0.50000000  0.26732674  0.50000000   0.00
0.50000000  0.26237625  0.50000000   0.00
0.50000000  0.25742573  0.50000000   0.00
0.50000000  0.25247526  0.50000000   0.00
0.50000000  0.24752477  0.50000000   0.00
0.50000000  0.24257427  0.50000000   0.00
0.50000000  0.23762378  0.50000000   0.00
0.50000000  0.23267326  0.50000000   0.00
0.50000000  0.22772276  0.50000000   0.00
0.50000000  0.22277227  0.50000000   0.00
0.50000000  0.21782178  0.50000000   0.00
0.50000000  0.21287128  0.50000000   0.00
0.50000000  0.20792079  0.50000000   0.00
0.50000000  0.20297030  0.50000000   0.00
0.50000000  0.19801980  0.50000000   0.00
0.50000000  0.19306931  0.50000000   0.00
0.50000000  0.18811882  0.50000000   0.00
0.50000000  0.18316832  0.50000000   0.00
0.50000000  0.17821783  0.50000000   0.00
0.50000000  0.17326733  0.50000000   0.00
0.50000000  0.16831684  0.50000000   0.00
0.50000000  0.16336635  0.50000000   0.00
0.50000000  0.15841585  0.50000000   0.00
0.50000000  0.15346536  0.50000000   0.00
0.50000000  0.14851487  0.50000000   0.00
0.50000000  0.14356437  0.50000000   0.00
0.50000000  0.13861388  0.50000000   0.00
0.50000000  0.13366339  0.50000000   0.00
0.50000000  0.12871286  0.50000000   0.00
0.50000000  0.12376237  0.50000000   0.00
0.50000000  0.11881188  0.50000000   0.00
0.50000000  0.11386138  0.50000000   0.00
0.50000000  0.10891089  0.50000000   0.00
0.50000000  0.10396039  0.50000000   0.00
0.50000000  0.09900990  0.50000000   0.00
0.50000000  0.09405941  0.50000000   0.00
0.50000000  0.08910891  0.50000000   0.00
0.50000000  0.08415842  0.50000000   0.00
0.50000000  0.07920793  0.50000000   0.00
0.50000000  0.07425743  0.50000000   0.00
0.50000000  0.06930694  0.50000000   0.00
0.50000000  0.06435645  0.50000000   0.00
0.50000000  0.05940595  0.50000000   0.00
0.50000000  0.05445546  0.50000000   0.00
0.50000000  0.04950497  0.50000000   0.00
0.50000000  0.04455447  0.50000000   0.00
0.50000000  0.03960398  0.50000000   0.00
0.50000000  0.03465348  0.50000000   0.00
0.50000000  0.02970299  0.50000000   0.00
0.50000000  0.02475250  0.50000000   0.00
0.50000000  0.01980197  0.50000000   0.00
0.50000000  0.01485148  0.50000000   0.00
0.50000000  0.00990099  0.50000000   0.00
0.50000000  0.00495049  0.50000000   0.00
0.50000000  0.00000000  0.50000000   0.00
0.50000000  0.00495049  0.50000000   0.00
0.50000000  0.00990099  0.50000000   0.00
0.50000000  0.01485148  0.50000000   0.00
0.50000000  0.01980198  0.50000000   0.00
0.50000000  0.02475248  0.50000000   0.00
0.50000000  0.02970297  0.50000000   0.00
0.50000000  0.03465347  0.50000000   0.00
0.50000000  0.03960396  0.50000000   0.00
0.50000000  0.04455445  0.50000000   0.00
0.50000000  0.04950495  0.50000000   0.00
0.50000000  0.05445544  0.50000000   0.00
0.50000000  0.05940594  0.50000000   0.00
0.50000000  0.06435643  0.50000000   0.00
0.50000000  0.06930693  0.50000000   0.00
0.50000000  0.07425743  0.50000000   0.00
0.50000000  0.07920792  0.50000000   0.00
0.50000000  0.08415841  0.50000000   0.00
0.50000000  0.08910891  0.50000000   0.00
0.50000000  0.09405941  0.50000000   0.00
0.50000000  0.09900990  0.50000000   0.00
0.50000000  0.10396039  0.50000000   0.00
0.50000000  0.10891089  0.50000000   0.00
0.50000000  0.11386138  0.50000000   0.00
0.50000000  0.11881188  0.50000000   0.00
0.50000000  0.12376238  0.50000000   0.00
0.50000000  0.12871286  0.50000000   0.00
0.50000000  0.13366337  0.50000000   0.00
0.50000000  0.13861386  0.50000000   0.00
0.50000000  0.14356436  0.50000000   0.00
0.50000000  0.14851485  0.50000000   0.00
0.50000000  0.15346535  0.50000000   0.00
0.50000000  0.15841584  0.50000000   0.00
0.50000000  0.16336633  0.50000000   0.00
0.50000000  0.16831683  0.50000000   0.00
0.50000000  0.17326732  0.50000000   0.00
0.50000000  0.17821781  0.50000000   0.00
0.50000000  0.18316831  0.50000000   0.00
0.50000000  0.18811882  0.50000000   0.00
0.50000000  0.19306931  0.50000000   0.00
0.50000000  0.19801980  0.50000000   0.00
0.50000000  0.20297030  0.50000000   0.00
0.50000000  0.20792079  0.50000000   0.00
0.50000000  0.21287128  0.50000000   0.00
0.50000000  0.21782178  0.50000000   0.00
0.50000000  0.22277227  0.50000000   0.00
0.50000000  0.22772276  0.50000000   0.00
0.50000000  0.23267326  0.50000000   0.00
0.50000000  0.23762375  0.50000000   0.00
0.50000000  0.24257426  0.50000000   0.00
0.50000000  0.24752475  0.50000000   0.00
0.50000000  0.25247523  0.50000000   0.00
0.50000000  0.25742573  0.50000000   0.00
0.50000000  0.26237622  0.50000000   0.00
0.50000000  0.26732674  0.50000000   0.00
0.50000000  0.27227724  0.50000000   0.00
0.50000000  0.27722773  0.50000000   0.00
0.50000000  0.28217822  0.50000000   0.00
0.50000000  0.28712872  0.50000000   0.00
0.50000000  0.29207921  0.50000000   0.00
0.50000000  0.29702970  0.50000000   0.00
0.50000000  0.30198020  0.50000000   0.00
0.50000000  0.30693069  0.50000000   0.00
0.50000000  0.31188118  0.50000000   0.00
0.50000000  0.31683168  0.50000000   0.00
0.50000000  0.32178217  0.50000000   0.00
0.50000000  0.32673267  0.50000000   0.00
0.50000000  0.33168316  0.50000000   0.00
0.50000000  0.33663365  0.50000000   0.00
0.50000000  0.34158415  0.50000000   0.00
0.50000000  0.34653464  0.50000000   0.00
0.50000000  0.35148513  0.50000000   0.00
0.50000000  0.35643563  0.50000000   0.00
0.50000000  0.36138612  0.50000000   0.00
0.50000000  0.36633661  0.50000000   0.00
0.50000000  0.37128714  0.50000000   0.00
0.50000000  0.37623763  0.50000000   0.00
0.50000000  0.38118812  0.50000000   0.00
0.50000000  0.38613862  0.50000000   0.00
0.50000000  0.39108911  0.50000000   0.00
0.50000000  0.39603961  0.50000000   0.00
0.50000000  0.40099010  0.50000000   0.00
0.50000000  0.40594059  0.50000000   0.00
0.50000000  0.41089109  0.50000000   0.00
0.50000000  0.41584158  0.50000000   0.00
0.50000000  0.42079207  0.50000000   0.00
0.50000000  0.42574257  0.50000000   0.00
0.50000000  0.43069306  0.50000000   0.00
0.50000000  0.43564355  0.50000000   0.00
0.50000000  0.44059405  0.50000000   0.00
0.50000000  0.44554454  0.50000000   0.00
0.50000000  0.45049503  0.50000000   0.00
0.50000000  0.45544553  0.50000000   0.00
0.50000000  0.46039602  0.50000000   0.00
0.50000000  0.46534652  0.50000000   0.00
0.50000000  0.47029701  0.50000000   0.00
0.50000000  0.47524750  0.50000000   0.00
0.50000000  0.48019803  0.50000000   0.00
0.50000000  0.48514852  0.50000000   0.00
0.50000000  0.49009901  0.50000000   0.00
0.50000000  0.49504951  0.50000000   0.00
0.50000000  0.50000000  0.50000000   0.00
0.50000000  0.50000000  0.49500000   0.00
0.50000000  0.50000000  0.49000001   0.00
0.50000000  0.50000000  0.48500001   0.00
0.50000000  0.50000000  0.47999999   0.00
0.50000000  0.50000000  0.47499999   0.00
0.50000000  0.50000000  0.47000000   0.00
0.50000000  0.50000000  0.46500000   0.00
0.50000000  0.50000000  0.46000001   0.00
0.50000000  0.50000000  0.45500001   0.00
0.50000000  0.50000000  0.44999999   0.00
0.50000000  0.50000000  0.44499999   0.00
0.50000000  0.50000000  0.44000000   0.00
0.50000000  0.50000000  0.43500000   0.00
0.50000000  0.50000000  0.43000001   0.00
0.50000000  0.50000000  0.42500001   0.00
0.50000000  0.50000000  0.42000002   0.00
0.50000000  0.50000000  0.41499999   0.00
0.50000000  0.50000000  0.41000000   0.00
0.50000000  0.50000000  0.40500000   0.00
0.50000000  0.50000000  0.40000001   0.00
0.50000000  0.50000000  0.39500001   0.00
0.50000000  0.50000000  0.38999999   0.00
0.50000000  0.50000000  0.38499999   0.00
0.50000000  0.50000000  0.38000000   0.00
0.50000000  0.50000000  0.37500000   0.00
0.50000000  0.50000000  0.37000000   0.00
0.50000000  0.50000000  0.36500001   0.00
0.50000000  0.50000000  0.36000001   0.00
0.50000000  0.50000000  0.35500002   0.00
0.50000000  0.50000000  0.35000002   0.00
0.50000000  0.50000000  0.34500000   0.00
0.50000000  0.50000000  0.34000000   0.00
0.50000000  0.50000000  0.33500001   0.00
0.50000000  0.50000000  0.32999998   0.00
0.50000000  0.50000000  0.32499999   0.00
0.50000000  0.50000000  0.31999999   0.00
0.50000000  0.50000000  0.31500000   0.00
0.50000000  0.50000000  0.31000000   0.00
0.50000000  0.50000000  0.30500001   0.00
0.50000000  0.50000000  0.30000001   0.00
0.50000000  0.50000000  0.29500002   0.00
0.50000000  0.50000000  0.29000002   0.00
0.50000000  0.50000000  0.28500003   0.00
0.50000000  0.50000000  0.28000000   0.00
0.50000000  0.50000000  0.27500001   0.00
0.50000000  0.50000000  0.27000001   0.00
0.50000000  0.50000000  0.26499999   0.00
0.50000000  0.50000000  0.25999999   0.00
0.50000000  0.50000000  0.25500000   0.00
0.50000000  0.50000000  0.25000000   0.00
0.50000000  0.50000000  0.24500000   0.00
0.50000000  0.50000000  0.24000001   0.00
0.50000000  0.50000000  0.23500001   0.00
0.50000000  0.50000000  0.23000002   0.00
0.50000000  0.50000000  0.22499999   0.00
0.50000000  0.50000000  0.22000000   0.00
0.50000000  0.50000000  0.21500000   0.00
0.50000000  0.50000000  0.21000001   0.00
0.50000000  0.50000000  0.20500001   0.00
0.50000000  0.50000000  0.20000002   0.00
0.50000000  0.50000000  0.19499999   0.00
0.50000000  0.50000000  0.19000000   0.00
0.50000000  0.50000000  0.18500000   0.00
0.50000000  0.50000000  0.18000001   0.00
0.50000000  0.50000000  0.17500001   0.00
0.50000000  0.50000000  0.17000002   0.00
0.50000000  0.50000000  0.16500002   0.00
0.50000000  0.50000000  0.16000000   0.00
0.50000000  0.50000000  0.15500000   0.00
0.50000000  0.50000000  0.15000001   0.00
0.50000000  0.50000000  0.14500001   0.00
0.50000000  0.50000000  0.14000002   0.00
0.50000000  0.50000000  0.13500002   0.00
0.50000000  0.50000000  0.13000000   0.00
0.50000000  0.50000000  0.12500000   0.00
0.50000000  0.50000000  0.12000000   0.00
0.50000000  0.50000000  0.11500001   0.00
0.50000000  0.50000000  0.11000001   0.00
0.50000000  0.50000000  0.10500002   0.00
0.50000000  0.50000000  0.10000002   0.00
0.50000000  0.50000000  0.09500000   0.00
0.50000000  0.50000000  0.09000000   0.00
0.50000000  0.50000000  0.08500001   0.00
0.50000000  0.50000000  0.08000001   0.00
0.50000000  0.50000000  0.07500002   0.00
0.50000000  0.50000000  0.07000002   0.00
0.50000000  0.50000000  0.06500000   0.00
0.50000000  0.50000000  0.06000000   0.00
0.50000000  0.50000000  0.05500001   0.00
0.50000000  0.50000000  0.05000001   0.00
0.50000000  0.50000000  0.04500002   0.00
0.50000000  0.50000000  0.04000002   0.00
0.50000000  0.50000000  0.03500000   0.00
0.50000000  0.50000000  0.03000000   0.00
0.50000000  0.50000000  0.02500001   0.00
0.50000000  0.50000000  0.02000001   0.00
0.50000000  0.50000000  0.01500002   0.00
0.50000000  0.50000000  0.01000002   0.00
0.50000000  0.50000000  0.00500003   0.00
0.50000000  0.50000000  0.00000000   0.00
