C N H Pb I
   1.0
    12.5768374277686394    0.0019159116494978    0.1381987933539664
     0.0011956322447466   12.4575380825249127   -0.0007464134870236
     0.1394107043392118    0.0000890449825412   12.7474206252920563
C   N   H  Pb   I
   8    8   48    8   24
Direct
  0.1992243743395382  0.2499175748447564  0.2254418062603639
  0.6947638904857578  0.2498989753838521  0.2323889024207300
  0.1947638904857578  0.7498989753838521  0.2323889024207300
  0.6992243743395381  0.7499175748447563  0.2254418062603639
  0.1992243743395381  0.2499175748447564  0.7254418062603638
  0.6947638904857578  0.2498989753838521  0.7323889024207300
  0.1947638904857578  0.7498989753838521  0.7323889024207300
  0.6992243743395381  0.7499175748447564  0.7254418062603638
  0.3051509608892836  0.2500106960478951  0.2740807719091785
  0.8039234769441512  0.2499965851852715  0.2736878210394286
  0.3039234769441512  0.7499965851852715  0.2736878210394286
  0.8051509608892836  0.7500106960478952  0.2740807719091786
  0.3051509608892836  0.2500106960478951  0.7740807719091786
  0.8039234769441511  0.2499965851852715  0.7736878210394287
  0.3039234769441512  0.7499965851852715  0.7736878210394287
  0.8051509608892834  0.7500106960478951  0.7740807719091785
  0.2103229204730276  0.2498208006702089  0.1396261059282806
  0.6998274140004785  0.2498213919778519  0.1461511459651477
  0.1998274140004788  0.7498213919778519  0.1461511459651476
  0.7103229204730275  0.7498208006702088  0.1396261059282806
  0.2103229204730276  0.2498208006702089  0.6396261059282806
  0.6998274140004787  0.2498213919778519  0.6461511459651478
  0.1998274140004788  0.7498213919778518  0.6461511459651477
  0.7103229204730275  0.7498208006702088  0.6396261059282806
  0.1557317839182454  0.3223868815340841  0.2506484961037242
  0.6529438294386015  0.3223174918466706  0.2603821423889104
  0.1529438294386017  0.8223174918466706  0.2603821423889105
  0.6557317839182455  0.8223868815340841  0.2506484961037242
  0.1557317839182454  0.3223868815340840  0.7506484961037242
  0.6529438294386014  0.3223174918466706  0.7603821423889106
  0.1529438294386017  0.8223174918466707  0.7603821423889106
  0.6557317839182454  0.8223868815340840  0.7506484961037242
  0.1558226524235043  0.1774707467684324  0.2508003277043997
  0.6530630148549629  0.1774814001818922  0.2605010857162256
  0.1530630148549629  0.6774814001818922  0.2605010857162256
  0.6558226524235041  0.6774707467684323  0.2508003277043998
  0.1558226524235043  0.1774707467684324  0.7508003277043999
  0.6530630148549628  0.1774814001818923  0.7605010857162254
  0.1530630148549629  0.6774814001818922  0.7605010857162254
  0.6558226524235041  0.6774707467684323  0.7508003277043999
  0.3494544887105756  0.3179486625892676  0.2524147363060431
  0.8468146660428334  0.3177999032251778  0.2490982456604348
  0.3468146660428336  0.8177999032251777  0.2490982456604348
  0.8494544887105755  0.8179486625892677  0.2524147363060432
  0.3494544887105756  0.3179486625892676  0.7524147363060431
  0.8468146660428334  0.3177999032251778  0.7490982456604348
  0.3468146660428336  0.8177999032251776  0.7490982456604348
  0.8494544887105753  0.8179486625892677  0.7524147363060431
  0.3495114606862321  0.1820337057902413  0.2525662964154868
  0.8468991398208465  0.1821760691524241  0.2492155032396405
  0.3468991398208468  0.6821760691524240  0.2492155032396405
  0.8495114606862321  0.6820337057902414  0.2525662964154868
  0.3495114606862321  0.1820337057902413  0.7525662964154868
  0.8468991398208465  0.1821760691524240  0.7492155032396405
  0.3468991398208467  0.6821760691524240  0.7492155032396405
  0.8495114606862320  0.6820337057902413  0.7525662964154867
  0.3006655283604125  0.2501128011492340  0.3557086076328394
  0.8056746175856155  0.2500742422897077  0.3555098817068250
  0.3056746175856154  0.7500742422897079  0.3555098817068250
  0.8006655283604123  0.7501128011492338  0.3557086076328395
  0.3006655283604125  0.2501128011492339  0.8557086076328395
  0.8056746175856154  0.2500742422897077  0.8555098817068250
  0.3056746175856154  0.7500742422897078  0.8555098817068250
  0.8006655283604124  0.7501128011492340  0.8557086076328395
  0.4724437311065071  0.5003534732209154  0.4888109622395966
  0.9724398208512158  0.4996261165089528  0.4888119317900113
  0.4724398208512159  0.9996261165089527  0.4888119317900114
  0.9724437311065067  0.0003534732209154  0.4888109622395966
  0.4724437311065070  0.5003534732209153  0.9888109622395967
  0.9724398208512159  0.4996261165089527  0.9888119317900115
  0.4724398208512158  0.9996261165089528  0.9888119317900115
  0.9724437311065067  0.0003534732209154  0.9888109622395966
  0.4547490936889095  0.5001846951020843  0.2375715894327514
  0.9547382549708922  0.4997974039225434  0.2375738944842381
  0.4547382549708923  0.9997974039225435  0.2375738944842381
  0.9547490936889094  0.0001846951020843  0.2375715894327514
  0.4547490936889095  0.5001846951020842  0.7375715894327515
  0.9547382549708922  0.4997974039225434  0.7375738944842380
  0.4547382549708922  0.9997974039225435  0.7375738944842380
  0.9547490936889094  0.0001846951020841  0.7375715894327515
  0.4566410482183856  0.2499776266671468  0.0105157016575930
  0.9426298309094047  0.2499803944239353  0.0131487338108258
  0.4426298309094048  0.7499803944239352  0.0131487338108258
  0.9566410482183856  0.7499776266671467  0.0105157016575930
  0.4566410482183856  0.2499776266671468  0.5105157016575930
  0.9426298309094048  0.2499803944239353  0.5131487338108258
  0.4426298309094048  0.7499803944239353  0.5131487338108258
  0.9566410482183856  0.7499776266671467  0.5105157016575930
  0.2161731295194887  0.4916357744824020  0.4612397005950377
  0.7161697473610865  0.5083590982351416  0.4612397030921749
  0.2161697473610867  0.0083590982351414  0.4612397030921749
  0.7161731295194885  0.9916357744824018  0.4612397005950378
  0.2161731295194887  0.4916357744824020  0.9612397005950378
  0.7161697473610866  0.5083590982351416  0.9612397030921748
  0.2161697473610867  0.0083590982351414  0.9612397030921749
  0.7161731295194886  0.9916357744824018  0.9612397005950378
