Cd1 Te1
1.0
        6.4826998711         0.0000000000         0.0000000000
        0.0000000000         6.4826998711         0.0000000000
        0.0000000000         0.0000000000         6.4826998711
   Cd   Te
    4    4
Direct
     0.000000000         0.000000000         0.000000000
     0.000000000         0.500000000         0.500000000
     0.500000000         0.000000000         0.500000000
     0.500000000         0.500000000         0.000000000
     0.250000000         0.250000000         0.250000000
     0.750000000         0.750000000         0.250000000
     0.750000000         0.250000000         0.750000000
     0.250000000         0.750000000         0.750000000
