C N H Pb I                              
   1.00000000000000     
    12.5768374277686394    0.0019159116494978    0.1381987933539664
     0.0011956322447466   12.4575380825249127   -0.0007464134870236
     0.1394107043392118    0.0000890449825412   12.7474206252920563
   C    N    H    Pb   I 
     8     8    48     8    24
Direct
  0.1974230374230928  0.2498744929131860  0.2287214938494699
  0.6965652274022034  0.2499420573154225  0.2291092148316238
  0.1965652274022034  0.7499420573154225  0.2291092148316238
  0.6974230374230928  0.7498744929131860  0.2287214938494699
  0.1965652274022034  0.2499420573154225  0.7291092148316238
  0.6974230374230928  0.2498744929131860  0.7287214938494699
  0.1974230374230928  0.7498744929131860  0.7287214938494699
  0.6965652274022034  0.7499420573154225  0.7291092148316238
  0.3085029405483866  0.2499819392645151  0.2657376019689437
  0.8005714972850484  0.2500253419686516  0.2820309909796634
  0.3005714972850484  0.7500253419686516  0.2820309909796634
  0.8085029405483866  0.7499819392645151  0.2657376019689437
  0.3005714972850484  0.2500253419686516  0.7820309909796634
  0.8085029405483866  0.2499819392645151  0.7657376019689437
  0.3085029405483866  0.7499819392645151  0.7657376019689437
  0.8005714972850484  0.7500253419686516  0.7820309909796634
  0.1989230657558849  0.2497874839486514  0.1422269562999929
  0.7112272687176215  0.2498547086994094  0.1435502955934354
  0.2112272687176215  0.7498547086994094  0.1435502955934354
  0.6989230657558849  0.7497874839486514  0.1422269562999929
  0.2112272687176215  0.2498547086994094  0.6435502955934354
  0.6989230657558849  0.2497874839486514  0.6422269562999929
  0.1989230657558849  0.7497874839486514  0.6422269562999929
  0.7112272687176215  0.7498547086994094  0.6435502955934354
  0.1565815348194874  0.3222697973645481  0.2583142655111317
  0.6520940785373597  0.3224345760162066  0.2527163729815030
  0.1520940785373597  0.8224345760162066  0.2527163729815030
  0.6565815348194874  0.8222697973645481  0.2583142655111317
  0.1520940785373597  0.3224345760162066  0.7527163729815030
  0.6565815348194874  0.3222697973645481  0.7583142655111317
  0.1565815348194874  0.8222697973645481  0.7583142655111317
  0.6520940785373597  0.8224345760162066  0.7527163729815030
  0.1567150396094874  0.1774795043775725  0.2584428776548435
  0.6521706276689798  0.1774726425727522  0.2528585357657818
  0.1521706276689798  0.6774726425727522  0.2528585357657818
  0.6567150396094874  0.6774795043775725  0.2584428776548435
  0.1521706276689798  0.1774726425727522  0.7528585357657818
  0.6567150396094874  0.1774795043775725  0.7584428776548435
  0.1567150396094874  0.6774795043775725  0.7584428776548435
  0.6521706276689798  0.6774726425727522  0.7528585357657818
  0.3505304438972843  0.3178102810117096  0.2396352282091243
  0.8457387108561250  0.3179382848027359  0.2618777537573536
  0.3457387108561250  0.8179382848027359  0.2618777537573536
  0.8505304438972843  0.8178102810117096  0.2396352282091243
  0.3457387108561250  0.3179382848027359  0.7618777537573536
  0.8505304438972843  0.3178102810117096  0.7396352282091243
  0.3505304438972843  0.8178102810117096  0.7396352282091243
  0.8457387108561250  0.8179382848027359  0.7618777537573465
  0.3506350979004154  0.1821492799824824  0.2397398534908248
  0.8457755026066636  0.1820604949601830  0.2620419461643024
  0.3457755026066636  0.6820604949601830  0.2620419461643024
  0.8506350979004154  0.6821492799824824  0.2397398534908248
  0.3457755026066636  0.1820604949601830  0.7620419461643024
  0.8506350979004154  0.1821492799824824  0.7397398534908248
  0.3506350979004154  0.6821492799824824  0.7397398534908248
  0.8457755026066636  0.6820604949601830  0.7620419461643024
  0.3139012139654369  0.2500488446761651  0.3477104181959021
  0.7924389319805911  0.2501381987627767  0.3635080711437624
  0.2924389319805911  0.7501381987627767  0.3635080711437624
  0.8139012139654369  0.7500488446761651  0.3477104181959021
  0.2924389319805911  0.2501381987627767  0.8635080711437624
  0.8139012139654369  0.2500488446761651  0.8477104181959021
  0.3139012139654369  0.7500488446761651  0.8477104181959021
  0.7924389319805911  0.7501381987627767  0.8635080711437624
  0.4724397180168864  0.4989300397309364  0.4888086283944872
  0.9724438339408366  0.5010495499989318  0.4888142656351206
  0.4724438339408366  0.0010495499989318  0.4888142656351206
  0.9724397180168864  0.9989300397309364  0.4888086283944872
  0.4724438339408366  0.5010495499989318  0.9888142656351206
  0.9724397180168864  0.4989300397309364  0.9888086283944872
  0.4724397180168864  0.9989300397309364  0.9888086283944872
  0.9724438339408366  0.0010495499989318  0.9888142656351206
  0.4547189316102447  0.5021848024756750  0.2375739956682636
  0.9547684170495572  0.4977972965489528  0.2375714882487259
  0.4547684170495572  0.9977972965489528  0.2375714882487259
  0.9547189316102447  0.0021848024756750  0.2375739956682636
  0.4547684170495572  0.4977972965489528  0.7375714882487259
  0.9547189316102447  0.5021848024756750  0.7375739956682636
  0.4547189316102447  0.0021848024756750  0.7375739956682636
  0.9547684170495572  0.9977972965489528  0.7375714882487259
  0.4659011808834634  0.2499751033608533  0.0111055303335448
  0.9333696982443271  0.2499829177302288  0.0125589051348740
  0.4333696982443271  0.7499829177302288  0.0125589051348740
  0.9659011808834634  0.7499751033608533  0.0111055303335448
  0.4333696982443271  0.2499829177302288  0.5125589051348740
  0.9659011808834634  0.2499751033608533  0.5111055303335448
  0.4659011808834634  0.7499751033608533  0.5111055303335448
  0.9333696982443271  0.7499829177302288  0.5125589051348740
  0.2161674074356483  0.5186559662665644  0.4612591820158229
  0.7161754694449272  0.4813389064509792  0.4612202216713897
  0.2161754694449272  0.9813389064509792  0.4612202216713897
  0.7161674074356483  0.0186559662665644  0.4612591820158229
  0.2161754694449272  0.4813389064509792  0.9612202216713897
  0.7161674074356483  0.5186559662665644  0.9612591820158229
  0.2161674074356483  0.0186559662665644  0.9612591820158229
  0.7161754694449272  0.9813389064509792  0.9612202216713897
 
  0.00000000E+00  0.00000000E+00  0.00000000E+00
  0.00000000E+00  0.00000000E+00  0.00000000E+00
  0.00000000E+00  0.00000000E+00  0.00000000E+00
  0.00000000E+00  0.00000000E+00  0.00000000E+00
  0.00000000E+00  0.00000000E+00  0.00000000E+00
  0.00000000E+00  0.00000000E+00  0.00000000E+00
  0.00000000E+00  0.00000000E+00  0.00000000E+00
  0.00000000E+00  0.00000000E+00  0.00000000E+00
  0.00000000E+00  0.00000000E+00  0.00000000E+00
  0.00000000E+00  0.00000000E+00  0.00000000E+00
  0.00000000E+00  0.00000000E+00  0.00000000E+00
  0.00000000E+00  0.00000000E+00  0.00000000E+00
  0.00000000E+00  0.00000000E+00  0.00000000E+00
  0.00000000E+00  0.00000000E+00  0.00000000E+00
  0.00000000E+00  0.00000000E+00  0.00000000E+00
  0.00000000E+00  0.00000000E+00  0.00000000E+00
  0.00000000E+00  0.00000000E+00  0.00000000E+00
  0.00000000E+00  0.00000000E+00  0.00000000E+00
  0.00000000E+00  0.00000000E+00  0.00000000E+00
  0.00000000E+00  0.00000000E+00  0.00000000E+00
  0.00000000E+00  0.00000000E+00  0.00000000E+00
  0.00000000E+00  0.00000000E+00  0.00000000E+00
  0.00000000E+00  0.00000000E+00  0.00000000E+00
  0.00000000E+00  0.00000000E+00  0.00000000E+00
  0.00000000E+00  0.00000000E+00  0.00000000E+00
  0.00000000E+00  0.00000000E+00  0.00000000E+00
  0.00000000E+00  0.00000000E+00  0.00000000E+00
  0.00000000E+00  0.00000000E+00  0.00000000E+00
  0.00000000E+00  0.00000000E+00  0.00000000E+00
  0.00000000E+00  0.00000000E+00  0.00000000E+00
  0.00000000E+00  0.00000000E+00  0.00000000E+00
  0.00000000E+00  0.00000000E+00  0.00000000E+00
  0.00000000E+00  0.00000000E+00  0.00000000E+00
  0.00000000E+00  0.00000000E+00  0.00000000E+00
  0.00000000E+00  0.00000000E+00  0.00000000E+00
  0.00000000E+00  0.00000000E+00  0.00000000E+00
  0.00000000E+00  0.00000000E+00  0.00000000E+00
  0.00000000E+00  0.00000000E+00  0.00000000E+00
  0.00000000E+00  0.00000000E+00  0.00000000E+00
  0.00000000E+00  0.00000000E+00  0.00000000E+00
  0.00000000E+00  0.00000000E+00  0.00000000E+00
  0.00000000E+00  0.00000000E+00  0.00000000E+00
  0.00000000E+00  0.00000000E+00  0.00000000E+00
  0.00000000E+00  0.00000000E+00  0.00000000E+00
  0.00000000E+00  0.00000000E+00  0.00000000E+00
  0.00000000E+00  0.00000000E+00  0.00000000E+00
  0.00000000E+00  0.00000000E+00  0.00000000E+00
  0.00000000E+00  0.00000000E+00  0.00000000E+00
  0.00000000E+00  0.00000000E+00  0.00000000E+00
  0.00000000E+00  0.00000000E+00  0.00000000E+00
  0.00000000E+00  0.00000000E+00  0.00000000E+00
  0.00000000E+00  0.00000000E+00  0.00000000E+00
  0.00000000E+00  0.00000000E+00  0.00000000E+00
  0.00000000E+00  0.00000000E+00  0.00000000E+00
  0.00000000E+00  0.00000000E+00  0.00000000E+00
  0.00000000E+00  0.00000000E+00  0.00000000E+00
  0.00000000E+00  0.00000000E+00  0.00000000E+00
  0.00000000E+00  0.00000000E+00  0.00000000E+00
  0.00000000E+00  0.00000000E+00  0.00000000E+00
  0.00000000E+00  0.00000000E+00  0.00000000E+00
  0.00000000E+00  0.00000000E+00  0.00000000E+00
  0.00000000E+00  0.00000000E+00  0.00000000E+00
  0.00000000E+00  0.00000000E+00  0.00000000E+00
  0.00000000E+00  0.00000000E+00  0.00000000E+00
  0.00000000E+00  0.00000000E+00  0.00000000E+00
  0.00000000E+00  0.00000000E+00  0.00000000E+00
  0.00000000E+00  0.00000000E+00  0.00000000E+00
  0.00000000E+00  0.00000000E+00  0.00000000E+00
  0.00000000E+00  0.00000000E+00  0.00000000E+00
  0.00000000E+00  0.00000000E+00  0.00000000E+00
  0.00000000E+00  0.00000000E+00  0.00000000E+00
  0.00000000E+00  0.00000000E+00  0.00000000E+00
  0.00000000E+00  0.00000000E+00  0.00000000E+00
  0.00000000E+00  0.00000000E+00  0.00000000E+00
  0.00000000E+00  0.00000000E+00  0.00000000E+00
  0.00000000E+00  0.00000000E+00  0.00000000E+00
  0.00000000E+00  0.00000000E+00  0.00000000E+00
  0.00000000E+00  0.00000000E+00  0.00000000E+00
  0.00000000E+00  0.00000000E+00  0.00000000E+00
  0.00000000E+00  0.00000000E+00  0.00000000E+00
  0.00000000E+00  0.00000000E+00  0.00000000E+00
  0.00000000E+00  0.00000000E+00  0.00000000E+00
  0.00000000E+00  0.00000000E+00  0.00000000E+00
  0.00000000E+00  0.00000000E+00  0.00000000E+00
  0.00000000E+00  0.00000000E+00  0.00000000E+00
  0.00000000E+00  0.00000000E+00  0.00000000E+00
  0.00000000E+00  0.00000000E+00  0.00000000E+00
  0.00000000E+00  0.00000000E+00  0.00000000E+00
  0.00000000E+00  0.00000000E+00  0.00000000E+00
  0.00000000E+00  0.00000000E+00  0.00000000E+00
  0.00000000E+00  0.00000000E+00  0.00000000E+00
  0.00000000E+00  0.00000000E+00  0.00000000E+00
  0.00000000E+00  0.00000000E+00  0.00000000E+00
  0.00000000E+00  0.00000000E+00  0.00000000E+00
  0.00000000E+00  0.00000000E+00  0.00000000E+00
  0.00000000E+00  0.00000000E+00  0.00000000E+00
