Automatically generated mesh SCF: 16 steps, 60 , dim: 4.584*3, route:GX
    76
Reciprocal lattice
    0.00000000000000    0.00000000000000    0.00000000000000             1
    0.16666666666667    0.00000000000000    0.00000000000000             8
    0.33333333333333    0.00000000000000    0.00000000000000             8
    0.50000000000000    0.00000000000000    0.00000000000000             4
    0.16666666666667    0.16666666666667    0.00000000000000             6
    0.33333333333333    0.16666666666667    0.00000000000000            24
    0.50000000000000    0.16666666666667    0.00000000000000            24
   -0.33333333333333    0.16666666666667    0.00000000000000            24
   -0.16666666666667    0.16666666666667    0.00000000000000            12
    0.33333333333333    0.33333333333333    0.00000000000000             6
    0.50000000000000    0.33333333333333    0.00000000000000            24
   -0.33333333333333    0.33333333333333    0.00000000000000            12
    0.50000000000000    0.50000000000000    0.00000000000000             3
    0.50000000000000    0.33333333333333    0.16666666666667            24
   -0.33333333333333    0.33333333333333    0.16666666666667            24
   -0.33333333333333    0.50000000000000    0.16666666666667            12
0.00000000  0.00000000  0.00000000   0.00
0.00833333  0.00000000  0.00833333   0.00
0.01666667  0.00000000  0.01666667   0.00
0.02500000  0.00000000  0.02500000   0.00
0.03333334  0.00000000  0.03333334   0.00
0.04166667  0.00000000  0.04166667   0.00
0.05000000  0.00000000  0.05000000   0.00
0.05833334  0.00000000  0.05833334   0.00
0.06666667  0.00000000  0.06666667   0.00
0.07500000  0.00000000  0.07500000   0.00
0.08333334  0.00000000  0.08333334   0.00
0.09166667  0.00000000  0.09166667   0.00
0.10000001  0.00000000  0.10000001   0.00
0.10833333  0.00000000  0.10833333   0.00
0.11666667  0.00000000  0.11666667   0.00
0.12500000  0.00000000  0.12500000   0.00
0.13333334  0.00000000  0.13333334   0.00
0.14166668  0.00000000  0.14166668   0.00
0.15000001  0.00000000  0.15000001   0.00
0.15833335  0.00000000  0.15833335   0.00
0.16666667  0.00000000  0.16666667   0.00
0.17500001  0.00000000  0.17500001   0.00
0.18333334  0.00000000  0.18333334   0.00
0.19166668  0.00000000  0.19166668   0.00
0.20000002  0.00000000  0.20000002   0.00
0.20833336  0.00000000  0.20833336   0.00
0.21666667  0.00000000  0.21666667   0.00
0.22500001  0.00000000  0.22500001   0.00
0.23333335  0.00000000  0.23333335   0.00
0.24166669  0.00000000  0.24166669   0.00
0.25000000  0.00000000  0.25000000   0.00
0.25833333  0.00000000  0.25833333   0.00
0.26666668  0.00000000  0.26666668   0.00
0.27500001  0.00000000  0.27500001   0.00
0.28333336  0.00000000  0.28333336   0.00
0.29166666  0.00000000  0.29166666   0.00
0.30000001  0.00000000  0.30000001   0.00
0.30833334  0.00000000  0.30833334   0.00
0.31666669  0.00000000  0.31666669   0.00
0.32499999  0.00000000  0.32499999   0.00
0.33333334  0.00000000  0.33333334   0.00
0.34166667  0.00000000  0.34166667   0.00
0.35000002  0.00000000  0.35000002   0.00
0.35833335  0.00000000  0.35833335   0.00
0.36666667  0.00000000  0.36666667   0.00
0.37500003  0.00000000  0.37500003   0.00
0.38333336  0.00000000  0.38333336   0.00
0.39166668  0.00000000  0.39166668   0.00
0.40000004  0.00000000  0.40000004   0.00
0.40833333  0.00000000  0.40833333   0.00
0.41666672  0.00000000  0.41666672   0.00
0.42500001  0.00000000  0.42500001   0.00
0.43333334  0.00000000  0.43333334   0.00
0.44166669  0.00000000  0.44166669   0.00
0.45000002  0.00000000  0.45000002   0.00
0.45833334  0.00000000  0.45833334   0.00
0.46666670  0.00000000  0.46666670   0.00
0.47499999  0.00000000  0.47499999   0.00
0.48333338  0.00000000  0.48333338   0.00
0.49166667  0.00000000  0.49166667   0.00
0.50000000  0.00000000  0.50000000   0.00
