C N H Pb I                              
   1.00000000000000     
    12.5768374277686394    0.0019159116494978    0.1381987933539664
     0.0011956322447466   12.4575380825249127   -0.0007464134870236
     0.1394107043392118    0.0000890449825412   12.7474206252920563
   C    N    H    Pb   I 
     8     8    48     8    24
Direct
  0.2065323472331357  0.2499480478518521  0.2140598145093691
  0.6874559175921604  0.2498685023767564  0.2437708941717247
  0.1874559175921604  0.7498685023767564  0.2437708941717247
  0.7065323472331357  0.7499480478518521  0.2140598145093691
  0.2065323472331357  0.2499480478518521  0.7140598145093691
  0.6874559175921604  0.2498685023767564  0.7437708941717247
  0.1874559175921604  0.7498685023767564  0.7437708941717247
  0.7065323472331357  0.7499480478518521  0.7140598145093691
  0.3071620475095713  0.2500338150199468  0.2747245752271112
  0.8019123903238636  0.2499734662132198  0.2730440177214959
  0.3019123903238636  0.7499734662132198  0.2730440177214959
  0.8071620475095713  0.7500338150199468  0.2747245752271112
  0.3071620475095713  0.2500338150199468  0.7747245752271112
  0.8019123903238636  0.2499734662132198  0.7730440177214959
  0.3019123903238636  0.7499734662132198  0.7730440177214959
  0.8071620475095713  0.7500338150199468  0.7747245752271112
  0.2275185609730883  0.2498198318828813  0.1289356029958171
  0.6826317735004181  0.2498223607651795  0.1568416488976112
  0.1826317735004181  0.7498223607651795  0.1568416488976112
  0.7275185609730883  0.7498198318828813  0.1289356029958171
  0.2275185609730883  0.2498198318828813  0.6289356029958171
  0.6826317735004181  0.2498223607651795  0.6568416488976112
  0.1826317735004181  0.7498223607651795  0.6568416488976112
  0.7275185609730883  0.7498198318828813  0.6289356029958171
  0.1602995161270613  0.3225005682934921  0.2347010730124595
  0.6483760972297858  0.3222038050872627  0.2763295654801752
  0.1483760972297858  0.8222038050872698  0.2763295654801752
  0.6602995161270613  0.8225005682934921  0.2347010730124595
  0.1602995161270613  0.3225005682934921  0.7347010730124595
  0.6483760972297858  0.3222038050872627  0.7763295654801752
  0.1483760972297858  0.8222038050872627  0.7763295654801752
  0.6602995161270613  0.8225005682934921  0.7347010730124595
  0.1603439907375019  0.1774532924160894  0.2349067881419415
  0.6485416765409653  0.1774988545342353  0.2763946252786837
  0.1485416765409653  0.6774988545342282  0.2763946252786837
  0.6603439907374948  0.6774532924160894  0.2349067881419415
  0.1603439907375019  0.1774532924160894  0.7349067881419415
  0.6485416765409653  0.1774988545342353  0.7763946252786837
  0.1485416765409653  0.6774988545342353  0.7763946252786837
  0.6603439907374948  0.6774532924160894  0.7349067881419415
  0.3537795245434978  0.3181923871348715  0.2578484122332441
  0.8424896302099114  0.3175561786795740  0.2436645697332338
  0.3424896302099114  0.8175561786795740  0.2436645697332338
  0.8537795245434978  0.8181923871348715  0.2578484122332441
  0.3537795245434978  0.3181923871348715  0.7578484122332441
  0.8424896302099114  0.3175561786795740  0.7436645697332338
  0.3424896302099114  0.8175561786795740  0.7436645697332338
  0.8537795245434978  0.8181923871348715  0.7578484122332441
  0.3537914380831779  0.1818004603339247  0.2580561729633786
  0.8426191624239010  0.1824093146087407  0.2437256266917487
  0.3426191624239010  0.6824093146087407  0.2437256266917487
  0.8537914380831779  0.6818004603339247  0.2580561729633786
  0.3537914380831779  0.1818004603339247  0.7580561729633786
  0.8426191624239010  0.1824093146087407  0.7437256266917487
  0.3426191624239010  0.6824093146087407  0.7437256266917487
  0.8537914380831779  0.6818004603339247  0.7580561729633786
  0.2924587307394830  0.2501759752598147  0.3560341964541820
  0.8138814152065450  0.2500110681791270  0.3551842928854825
  0.3138814152065450  0.7500110681791270  0.3551842928854825
  0.7924587307394830  0.7501759752598147  0.3560341964541820
  0.2924587307394830  0.2501759752598147  0.8560341964541820
  0.8138814152065450  0.2500110681791270  0.8551842928854825
  0.3138814152065450  0.7500110681791270  0.8551842928854825
  0.7924587307394830  0.7501759752598147  0.8560341964541820
  0.4724501375952670  0.5015451607842465  0.4888093737464203
  0.9724334143624560  0.4984344289456217  0.4888135202831876
  0.4724334143624560  0.9984344289456217  0.4888135202831876
  0.9724501375952670  0.0015451607842465  0.4888093737464203
  0.4724501375952670  0.5015451607842465  0.9888093737464203
  0.9724334143624560  0.4984344289456217  0.9888135202831876
  0.4724334143624560  0.9984344289456217  0.9888135202831876
  0.9724501375952670  0.0015451607842465  0.9888093737464203
  0.4547668516407555  0.5008192256899733  0.2375678128797318
  0.9547204970190464  0.4991628733346545  0.2375776710372577
  0.4547204970190464  0.9991628733346545  0.2375776710372577
  0.9547668516407555  0.0008192256899733  0.2375678128797318
  0.4547668516407555  0.5008192256899733  0.7375678128797247
  0.9547204970190464  0.4991628733346545  0.7375776710372577
  0.4547204970190464  0.9991628733346545  0.7375776710372577
  0.9547668516407555  0.0008192256899733  0.7375678128797318
  0.4795967632611706  0.2499730920264582  0.0062017912759913
  0.9196741158666200  0.2499849290646239  0.0174626441924275
  0.4196741158666200  0.7499849290646239  0.0174626441924275
  0.9795967632611706  0.7499730920264582  0.0062017912759913
  0.4795967632611706  0.2499730920264582  0.5062017912759913
  0.9196741158666200  0.2499849290646239  0.5174626441924275
  0.4196741158666200  0.7499849290646239  0.5174626441924275
  0.9795967632611706  0.7499730920264582  0.5062017912759913
  0.2161786707842310  0.4642365952269358  0.4612396965037746
  0.7161642060963445  0.5357582774906078  0.4612397071834380
  0.2161642060963445  0.0357582774906078  0.4612397071834380
  0.7161786707842310  0.9642365952269358  0.4612396965037746
  0.2161786707842310  0.4642365952269358  0.9612396965037746
  0.7161642060963445  0.5357582774906078  0.9612397071834380
  0.2161642060963445  0.0357582774906078  0.9612397071834380
  0.7161786707842310  0.9642365952269358  0.9612396965037746
 
  0.00000000E+00  0.00000000E+00  0.00000000E+00
  0.00000000E+00  0.00000000E+00  0.00000000E+00
  0.00000000E+00  0.00000000E+00  0.00000000E+00
  0.00000000E+00  0.00000000E+00  0.00000000E+00
  0.00000000E+00  0.00000000E+00  0.00000000E+00
  0.00000000E+00  0.00000000E+00  0.00000000E+00
  0.00000000E+00  0.00000000E+00  0.00000000E+00
  0.00000000E+00  0.00000000E+00  0.00000000E+00
  0.00000000E+00  0.00000000E+00  0.00000000E+00
  0.00000000E+00  0.00000000E+00  0.00000000E+00
  0.00000000E+00  0.00000000E+00  0.00000000E+00
  0.00000000E+00  0.00000000E+00  0.00000000E+00
  0.00000000E+00  0.00000000E+00  0.00000000E+00
  0.00000000E+00  0.00000000E+00  0.00000000E+00
  0.00000000E+00  0.00000000E+00  0.00000000E+00
  0.00000000E+00  0.00000000E+00  0.00000000E+00
  0.00000000E+00  0.00000000E+00  0.00000000E+00
  0.00000000E+00  0.00000000E+00  0.00000000E+00
  0.00000000E+00  0.00000000E+00  0.00000000E+00
  0.00000000E+00  0.00000000E+00  0.00000000E+00
  0.00000000E+00  0.00000000E+00  0.00000000E+00
  0.00000000E+00  0.00000000E+00  0.00000000E+00
  0.00000000E+00  0.00000000E+00  0.00000000E+00
  0.00000000E+00  0.00000000E+00  0.00000000E+00
  0.00000000E+00  0.00000000E+00  0.00000000E+00
  0.00000000E+00  0.00000000E+00  0.00000000E+00
  0.00000000E+00  0.00000000E+00  0.00000000E+00
  0.00000000E+00  0.00000000E+00  0.00000000E+00
  0.00000000E+00  0.00000000E+00  0.00000000E+00
  0.00000000E+00  0.00000000E+00  0.00000000E+00
  0.00000000E+00  0.00000000E+00  0.00000000E+00
  0.00000000E+00  0.00000000E+00  0.00000000E+00
  0.00000000E+00  0.00000000E+00  0.00000000E+00
  0.00000000E+00  0.00000000E+00  0.00000000E+00
  0.00000000E+00  0.00000000E+00  0.00000000E+00
  0.00000000E+00  0.00000000E+00  0.00000000E+00
  0.00000000E+00  0.00000000E+00  0.00000000E+00
  0.00000000E+00  0.00000000E+00  0.00000000E+00
  0.00000000E+00  0.00000000E+00  0.00000000E+00
  0.00000000E+00  0.00000000E+00  0.00000000E+00
  0.00000000E+00  0.00000000E+00  0.00000000E+00
  0.00000000E+00  0.00000000E+00  0.00000000E+00
  0.00000000E+00  0.00000000E+00  0.00000000E+00
  0.00000000E+00  0.00000000E+00  0.00000000E+00
  0.00000000E+00  0.00000000E+00  0.00000000E+00
  0.00000000E+00  0.00000000E+00  0.00000000E+00
  0.00000000E+00  0.00000000E+00  0.00000000E+00
  0.00000000E+00  0.00000000E+00  0.00000000E+00
  0.00000000E+00  0.00000000E+00  0.00000000E+00
  0.00000000E+00  0.00000000E+00  0.00000000E+00
  0.00000000E+00  0.00000000E+00  0.00000000E+00
  0.00000000E+00  0.00000000E+00  0.00000000E+00
  0.00000000E+00  0.00000000E+00  0.00000000E+00
  0.00000000E+00  0.00000000E+00  0.00000000E+00
  0.00000000E+00  0.00000000E+00  0.00000000E+00
  0.00000000E+00  0.00000000E+00  0.00000000E+00
  0.00000000E+00  0.00000000E+00  0.00000000E+00
  0.00000000E+00  0.00000000E+00  0.00000000E+00
  0.00000000E+00  0.00000000E+00  0.00000000E+00
  0.00000000E+00  0.00000000E+00  0.00000000E+00
  0.00000000E+00  0.00000000E+00  0.00000000E+00
  0.00000000E+00  0.00000000E+00  0.00000000E+00
  0.00000000E+00  0.00000000E+00  0.00000000E+00
  0.00000000E+00  0.00000000E+00  0.00000000E+00
  0.00000000E+00  0.00000000E+00  0.00000000E+00
  0.00000000E+00  0.00000000E+00  0.00000000E+00
  0.00000000E+00  0.00000000E+00  0.00000000E+00
  0.00000000E+00  0.00000000E+00  0.00000000E+00
  0.00000000E+00  0.00000000E+00  0.00000000E+00
  0.00000000E+00  0.00000000E+00  0.00000000E+00
  0.00000000E+00  0.00000000E+00  0.00000000E+00
  0.00000000E+00  0.00000000E+00  0.00000000E+00
  0.00000000E+00  0.00000000E+00  0.00000000E+00
  0.00000000E+00  0.00000000E+00  0.00000000E+00
  0.00000000E+00  0.00000000E+00  0.00000000E+00
  0.00000000E+00  0.00000000E+00  0.00000000E+00
  0.00000000E+00  0.00000000E+00  0.00000000E+00
  0.00000000E+00  0.00000000E+00  0.00000000E+00
  0.00000000E+00  0.00000000E+00  0.00000000E+00
  0.00000000E+00  0.00000000E+00  0.00000000E+00
  0.00000000E+00  0.00000000E+00  0.00000000E+00
  0.00000000E+00  0.00000000E+00  0.00000000E+00
  0.00000000E+00  0.00000000E+00  0.00000000E+00
  0.00000000E+00  0.00000000E+00  0.00000000E+00
  0.00000000E+00  0.00000000E+00  0.00000000E+00
  0.00000000E+00  0.00000000E+00  0.00000000E+00
  0.00000000E+00  0.00000000E+00  0.00000000E+00
  0.00000000E+00  0.00000000E+00  0.00000000E+00
  0.00000000E+00  0.00000000E+00  0.00000000E+00
  0.00000000E+00  0.00000000E+00  0.00000000E+00
  0.00000000E+00  0.00000000E+00  0.00000000E+00
  0.00000000E+00  0.00000000E+00  0.00000000E+00
  0.00000000E+00  0.00000000E+00  0.00000000E+00
  0.00000000E+00  0.00000000E+00  0.00000000E+00
  0.00000000E+00  0.00000000E+00  0.00000000E+00
  0.00000000E+00  0.00000000E+00  0.00000000E+00
