ADDGRID = .TRUE.
EDIFF = 1.0e-08
ENCUT = 700
ISIF = 2
ISMEAR = 0
LCHARG = .FALSE.
LREAL = .FALSE.
LWAVE = .FALSE.
NSW = 0
PREC = Accurate
SIGMA = 0.001
SYSTEM = MAPbI3-Cubic

ICORELEVEL = 1
KPAR = 7
NPAR = 4

LHFCALC = .TRUE.
PRECFOCK = Fast
ALGO = All
HFSCREEN = 0.207
