Automatically generated mesh
      131
Reciprocal lattice
    0.00000000000000    0.00000000000000    0.00000000000000             1
    0.16666666666667    0.00000000000000    0.00000000000000             8
    0.33333333333333    0.00000000000000    0.00000000000000             8
    0.50000000000000    0.00000000000000    0.00000000000000             4
    0.16666666666667    0.16666666666667    0.00000000000000             6
    0.33333333333333    0.16666666666667    0.00000000000000            24
    0.50000000000000    0.16666666666667    0.00000000000000            24
   -0.33333333333333    0.16666666666667    0.00000000000000            24
   -0.16666666666667    0.16666666666667    0.00000000000000            12
    0.33333333333333    0.33333333333333    0.00000000000000             6
    0.50000000000000    0.33333333333333    0.00000000000000            24
   -0.33333333333333    0.33333333333333    0.00000000000000            12
    0.50000000000000    0.50000000000000    0.00000000000000             3
    0.50000000000000    0.33333333333333    0.16666666666667            24
   -0.33333333333333    0.33333333333333    0.16666666666667            24
   -0.33333333333333    0.50000000000000    0.16666666666667            12
0.00000000  0.00000000  0.00000000   0.00
0.02500000  0.00000000  0.02500000   0.00
0.05000000  0.00000000  0.05000000   0.00
0.07500000  0.00000000  0.07500000   0.00
0.09999999  0.00000000  0.09999999   0.00
0.12499999  0.00000000  0.12499999   0.00
0.14999999  0.00000000  0.14999999   0.00
0.17500000  0.00000000  0.17500000   0.00
0.19999999  0.00000000  0.19999999   0.00
0.22499998  0.00000000  0.22499998   0.00
0.24999999  0.00000000  0.24999999   0.00
0.27500001  0.00000000  0.27500001   0.00
0.29999998  0.00000000  0.29999998   0.00
0.32499999  0.00000000  0.32499999   0.00
0.34999999  0.00000000  0.34999999   0.00
0.37500000  0.00000000  0.37500000   0.00
0.39999998  0.00000000  0.39999998   0.00
0.42499998  0.00000000  0.42499998   0.00
0.44999996  0.00000000  0.44999996   0.00
0.47499996  0.00000000  0.47499996   0.00
0.49999997  0.00000000  0.49999997   0.00
0.50000000  0.02500000  0.52499998   0.00
0.50000000  0.05000000  0.55000001   0.00
0.50000000  0.07500000  0.57499999   0.00
0.50000000  0.09999999  0.60000002   0.00
0.50000000  0.12499999  0.62500000   0.00
0.50000000  0.14999999  0.64999998   0.00
0.50000000  0.17500000  0.67500001   0.00
0.50000000  0.19999999  0.69999999   0.00
0.50000000  0.22499998  0.72499996   0.00
0.50000000  0.24999999  0.75000000   0.00
0.47499999  0.27500001  0.75000000   0.00
0.44999999  0.30000001  0.75000000   0.00
0.42500001  0.32499999  0.75000000   0.00
0.40000001  0.34999999  0.75000000   0.00
0.37500000  0.37500000  0.75000000   0.00
0.36000001  0.36000001  0.72000003   0.00
0.34500000  0.34500000  0.69000000   0.00
0.33000001  0.33000001  0.66000003   0.00
0.31500000  0.31500000  0.63000000   0.00
0.30000001  0.30000001  0.60000002   0.00
0.28500003  0.28500003  0.57000005   0.00
0.27000001  0.27000001  0.54000002   0.00
0.25500000  0.25500000  0.50999999   0.00
0.24000001  0.24000001  0.48000002   0.00
0.22500001  0.22500001  0.45000002   0.00
0.21000001  0.21000001  0.42000002   0.00
0.19500002  0.19500002  0.39000005   0.00
0.18000001  0.18000001  0.36000001   0.00
0.16500002  0.16500002  0.33000004   0.00
0.15000001  0.15000001  0.30000001   0.00
0.13500001  0.13500001  0.27000001   0.00
0.12000000  0.12000000  0.24000001   0.00
0.10500002  0.10500002  0.21000004   0.00
0.09000000  0.09000000  0.18000001   0.00
0.07500002  0.07500002  0.15000004   0.00
0.06000003  0.06000003  0.12000006   0.00
0.04500002  0.04500002  0.09000003   0.00
0.03000000  0.03000000  0.06000000   0.00
0.01500005  0.01500005  0.03000009   0.00
0.00000003  0.00000003  0.00000006   0.00
0.02083333  0.02083333  0.02083333   0.00
0.04166667  0.04166667  0.04166667   0.00
0.06250000  0.06250000  0.06250000   0.00
0.08333334  0.08333334  0.08333334   0.00
0.10416666  0.10416666  0.10416666   0.00
0.12500000  0.12500000  0.12500000   0.00
0.14583334  0.14583334  0.14583334   0.00
0.16666667  0.16666667  0.16666667   0.00
0.18750000  0.18750000  0.18750000   0.00
0.20833333  0.20833333  0.20833333   0.00
0.22916667  0.22916667  0.22916667   0.00
0.25000000  0.25000000  0.25000000   0.00
0.27083334  0.27083334  0.27083334   0.00
0.29166669  0.29166669  0.29166669   0.00
0.31250000  0.31250000  0.31250000   0.00
0.33333334  0.33333334  0.33333334   0.00
0.35416669  0.35416669  0.35416669   0.00
0.37500000  0.37500000  0.37500000   0.00
0.39583334  0.39583334  0.39583334   0.00
0.41666666  0.41666666  0.41666666   0.00
0.43750000  0.43750000  0.43750000   0.00
0.45833334  0.45833334  0.45833334   0.00
0.47916666  0.47916666  0.47916666   0.00
0.50000000  0.50000000  0.50000000   0.00
0.51562500  0.46875000  0.51562500   0.00
0.53125000  0.43750000  0.53125000   0.00
0.54687500  0.40625000  0.54687500   0.00
0.56250000  0.37500000  0.56250000   0.00
0.57812500  0.34375000  0.57812500   0.00
0.59375000  0.31250000  0.59375000   0.00
0.60937500  0.28125000  0.60937500   0.00
0.62500000  0.25000000  0.62500000   0.00
0.60000002  0.25000000  0.64999998   0.00
0.57499999  0.25000000  0.67500001   0.00
0.55000001  0.25000000  0.69999999   0.00
0.52499998  0.25000000  0.72500002   0.00
0.50000000  0.25000000  0.75000000   0.00
0.50000000  0.27500001  0.72500002   0.00
0.50000000  0.30000001  0.69999999   0.00
0.50000000  0.32499999  0.67500001   0.00
0.50000000  0.34999999  0.64999998   0.00
0.50000000  0.37500000  0.62500000   0.00
0.50000000  0.39999998  0.60000002   0.00
0.50000000  0.42500001  0.57499999   0.00
0.50000000  0.44999999  0.55000001   0.00
0.50000000  0.47499996  0.52500004   0.00
0.50000000  0.50000000  0.50000000   0.00
0.48437500  0.48437500  0.53125000   0.00
0.46875000  0.46875000  0.56250000   0.00
0.45312500  0.45312500  0.59375000   0.00
0.43750000  0.43750000  0.62500000   0.00
0.42187500  0.42187500  0.65625000   0.00
0.40625000  0.40625000  0.68750000   0.00
0.39062500  0.39062500  0.71875000   0.00
0.37500000  0.37500000  0.75000000   0.00
