C N H Pb I
   1.0
    12.5768374277686394    0.0019159116494978    0.1381987933539664
     0.0011956322447466   12.4575380825249127   -0.0007464134870236
     0.1394107043392118    0.0000890449825412   12.7474206252920563
C   N   H  Pb   I
   8    8   48    8   24
Direct
  0.1974230374230896  0.2498744929131841  0.2287214938494707
  0.6965652274022064  0.2499420573154244  0.2291092148316232
  0.1965652274022064  0.7499420573154243  0.2291092148316231
  0.6974230374230895  0.7498744929131842  0.2287214938494707
  0.1965652274022064  0.2499420573154243  0.7291092148316232
  0.6974230374230896  0.2498744929131841  0.7287214938494707
  0.1974230374230896  0.7498744929131842  0.7287214938494707
  0.6965652274022064  0.7499420573154243  0.7291092148316233
  0.3085029405483861  0.2499819392645126  0.2657376019689420
  0.8005714972850488  0.2500253419686539  0.2820309909796652
  0.3005714972850488  0.7500253419686538  0.2820309909796652
  0.8085029405483859  0.7499819392645127  0.2657376019689420
  0.3005714972850488  0.2500253419686539  0.7820309909796650
  0.8085029405483860  0.2499819392645126  0.7657376019689420
  0.3085029405483860  0.7499819392645126  0.7657376019689420
  0.8005714972850487  0.7500253419686539  0.7820309909796651
  0.1989230657558878  0.2497874839486501  0.1422269562999962
  0.7112272687176183  0.2498547086994106  0.1435502955934321
  0.2112272687176185  0.7498547086994106  0.1435502955934321
  0.6989230657558877  0.7497874839486500  0.1422269562999962
  0.2112272687176185  0.2498547086994106  0.6435502955934320
  0.6989230657558877  0.2497874839486501  0.6422269562999963
  0.1989230657558878  0.7497874839486500  0.6422269562999963
  0.7112272687176183  0.7498547086994106  0.6435502955934320
  0.1565815348194887  0.3222697973645489  0.2583142655111296
  0.6520940785373582  0.3224345760162058  0.2527163729815051
  0.1520940785373583  0.8224345760162058  0.2527163729815051
  0.6565815348194887  0.8222697973645489  0.2583142655111296
  0.1520940785373583  0.3224345760162058  0.7527163729815053
  0.6565815348194886  0.3222697973645489  0.7583142655111295
  0.1565815348194887  0.8222697973645489  0.7583142655111295
  0.6520940785373582  0.8224345760162058  0.7527163729815052
  0.1567150396094888  0.1774795043775751  0.2584428776548406
  0.6521706276689783  0.1774726425727496  0.2528585357657847
  0.1521706276689783  0.6774726425727494  0.2528585357657847
  0.6567150396094887  0.6774795043775751  0.2584428776548406
  0.1521706276689783  0.1774726425727496  0.7528585357657848
  0.6567150396094887  0.1774795043775751  0.7584428776548405
  0.1567150396094888  0.6774795043775751  0.7584428776548405
  0.6521706276689783  0.6774726425727495  0.7528585357657848
  0.3505304438972852  0.3178102810117110  0.2396352282091278
  0.8457387108561238  0.3179382848027345  0.2618777537573501
  0.3457387108561240  0.8179382848027343  0.2618777537573501
  0.8505304438972852  0.8178102810117109  0.2396352282091278
  0.3457387108561241  0.3179382848027345  0.7618777537573501
  0.8505304438972849  0.3178102810117110  0.7396352282091279
  0.3505304438972852  0.8178102810117108  0.7396352282091279
  0.8457387108561237  0.8179382848027344  0.7618777537573500
  0.3506350979004162  0.1821492799824822  0.2397398534908264
  0.8457755026066625  0.1820604949601832  0.2620419461643009
  0.3457755026066626  0.6820604949601832  0.2620419461643009
  0.8506350979004161  0.6821492799824822  0.2397398534908264
  0.3457755026066626  0.1820604949601831  0.7620419461643010
  0.8506350979004160  0.1821492799824822  0.7397398534908263
  0.3506350979004162  0.6821492799824822  0.7397398534908263
  0.8457755026066625  0.6820604949601831  0.7620419461643009
  0.3139012139654371  0.2500488446761649  0.3477104181959054
  0.7924389319805908  0.2501381987627767  0.3635080711437590
  0.2924389319805909  0.7501381987627767  0.3635080711437590
  0.8139012139654369  0.7500488446761651  0.3477104181959054
  0.2924389319805909  0.2501381987627767  0.8635080711437590
  0.8139012139654370  0.2500488446761649  0.8477104181959055
  0.3139012139654371  0.7500488446761651  0.8477104181959055
  0.7924389319805908  0.7501381987627767  0.8635080711437590
  0.4724397180168835  0.4989300397309394  0.4888086283944871
  0.9724438339408393  0.5010495499989287  0.4888142656351208
  0.4724438339408394  0.0010495499989287  0.4888142656351208
  0.9724397180168832  0.9989300397309393  0.4888086283944871
  0.4724438339408394  0.5010495499989287  0.9888142656351210
  0.9724397180168833  0.4989300397309394  0.9888086283944872
  0.4724397180168834  0.9989300397309393  0.9888086283944872
  0.9724438339408392  0.0010495499989287  0.9888142656351209
  0.4547189316102421  0.5021848024756749  0.2375739956682642
  0.9547684170495594  0.4977972965489528  0.2375714882487254
  0.4547684170495597  0.9977972965489528  0.2375714882487253
  0.9547189316102419  0.0021848024756748  0.2375739956682642
  0.4547684170495596  0.4977972965489528  0.7375714882487253
  0.9547189316102419  0.5021848024756749  0.7375739956682641
  0.4547189316102421  0.0021848024756750  0.7375739956682641
  0.9547684170495595  0.9977972965489528  0.7375714882487254
  0.4659011808834647  0.2499751033608528  0.0111055303335431
  0.9333696982443257  0.2499829177302293  0.0125589051348756
  0.4333696982443256  0.7499829177302292  0.0125589051348757
  0.9659011808834644  0.7499751033608527  0.0111055303335432
  0.4333696982443258  0.2499829177302292  0.5125589051348757
  0.9659011808834645  0.2499751033608528  0.5111055303335431
  0.4659011808834647  0.7499751033608527  0.5111055303335431
  0.9333696982443257  0.7499829177302292  0.5125589051348757
  0.2161674074356456  0.5186559662665639  0.4612591820158206
  0.7161754694449298  0.4813389064509797  0.4612202216713920
  0.2161754694449299  0.9813389064509795  0.4612202216713920
  0.7161674074356454  0.0186559662665637  0.4612591820158206
  0.2161754694449299  0.4813389064509798  0.9612202216713920
  0.7161674074356454  0.5186559662665639  0.9612591820158205
  0.2161674074356456  0.0186559662665637  0.9612591820158207
  0.7161754694449298  0.9813389064509795  0.9612202216713921
