C N H Pb I                              
   1.00000000000000     
    12.5768374277686394    0.0019159116494978    0.1381987933539664
     0.0011956322447466   12.4575380825249127   -0.0007464134870236
     0.1394107043392118    0.0000890449825412   12.7474206252920563
   C    N    H    Pb   I 
     8     8    48     8    24
Direct
  0.2014546162664317  0.2499268745752090  0.2219682581801834
  0.6925336485588645  0.2498896756533995  0.2358624505009104
  0.1925336485588645  0.7498896756533995  0.2358624505009104
  0.7014546162664317  0.7499268745752090  0.2219682581801834
  0.2014546162664317  0.2499268745752090  0.7219682581801834
  0.6925336485588645  0.2498896756533995  0.7358624505009104
  0.1925336485588645  0.7498896756533995  0.7358624505009104
  0.7014546162664317  0.7499268745752090  0.7219682581801834
  0.3057647028618504  0.2500177514792057  0.2742772473440525
  0.8033097349715845  0.2499895297539609  0.2734913456045547
  0.3033097349715845  0.7499895297539609  0.2734913456045547
  0.8057647028618504  0.7500177514792057  0.2742772473440525
  0.3057647028618504  0.2500177514792057  0.7742772473440525
  0.8033097349715845  0.2499895297539609  0.7734913456045547
  0.3033097349715845  0.7499895297539609  0.7734913456045547
  0.8057647028618504  0.7500177514792057  0.7742772473440525
  0.2155706737093013  0.2498205050163875  0.1363635859098480
  0.6945796607642052  0.2498216876316732  0.1494136659835803
  0.1945796607642052  0.7498216876316732  0.1494136659835803
  0.7155706737093013  0.7498205050163875  0.1363635859098480
  0.2155706737093013  0.2498205050163875  0.6363635859098480
  0.6945796607642052  0.2498216876316732  0.6494136659835803
  0.1945796607642052  0.7498216876316732  0.6494136659835803
  0.7155706737093013  0.7498205050163875  0.6363635859098480
  0.1571257611580705  0.3224215763777920  0.2457816729611295
  0.6515498521987766  0.3222827970029627  0.2652489655315051
  0.1515498521987766  0.8222827970029627  0.2652489655315051
  0.6571257611580705  0.8224215763777920  0.2457816729611295
  0.1571257611580705  0.3224215763777920  0.7457816729611295
  0.6515498521987766  0.3222827970029627  0.7652489655315051
  0.1515498521987766  0.8222827970029627  0.7652489655315051
  0.6571257611580705  0.8224215763777920  0.7457816729611295
  0.1572024712077749  0.1774654200617007  0.2459499486984882
  0.6516831960706924  0.1774867268886240  0.2653514647221371
  0.1516831960706924  0.6774867268886240  0.2653514647221371
  0.6572024712077749  0.6774654200617007  0.2459499486984882
  0.1572024712077749  0.1774654200617007  0.7459499486984882
  0.6516831960706924  0.1774867268886240  0.7653514647221371
  0.1516831960706924  0.6774867268886240  0.7653514647221371
  0.6572024712077749  0.6774654200617007  0.7459499486984882
  0.3507744000444433  0.3180230422713137  0.2540729816288447
  0.8454947547089660  0.3177255235431318  0.2474400003376331
  0.3454947547089660  0.8177255235431318  0.2474400003376331
  0.8507744000444433  0.8180230422713137  0.2540729816288447
  0.3507744000444433  0.3180230422713137  0.7540729816288447
  0.8454947547089660  0.3177255235431318  0.7474400003376331
  0.3454947547089660  0.8177255235431318  0.7474400003376331
  0.8507744000444433  0.8180230422713137  0.7540729816288447
  0.3508176211189280  0.1819625241091529  0.2542416930034079
  0.8455929793881509  0.1822472508335125  0.2475401066517193
  0.3455929793881509  0.6822472508335125  0.2475401066517193
  0.8508176211189280  0.6819625241091529  0.2542416930034079
  0.3508176211189280  0.1819625241091529  0.7542416930034079
  0.8455929793881509  0.1822472508335125  0.7475401066517193
  0.3455929793881509  0.6822472508335125  0.7475401066517193
  0.8508176211189280  0.6819625241091529  0.7542416930034079
  0.2981609837478132  0.2501320805790002  0.3558079705958477
  0.8081791621982148  0.2500549628599416  0.3554105187438168
  0.3081791621982148  0.7500549628599416  0.3554105187438168
  0.7981609837478132  0.7501320805790002  0.3558079705958477
  0.2981609837478132  0.2501320805790002  0.8558079705958477
  0.8081791621982148  0.2500549628599416  0.8554105187438168
  0.3081791621982148  0.7500549628599416  0.8554105187438168
  0.7981609837478132  0.7501320805790002  0.8558079705958477
  0.4724456862341526  0.5007171515768931  0.4888104774643907
  0.9724378657235704  0.4992624381529680  0.4888124165652172
  0.4724378657235704  0.9992624381529680  0.4888124165652172
  0.9724456862341526  0.0007171515769002  0.4888104774643907
  0.4724456862341526  0.5007171515768931  0.9888104774643907
  0.9724378657235704  0.4992624381529680  0.9888124165652172
  0.4724378657235704  0.9992624381529680  0.9888124165652172
  0.9724456862341526  0.0007171515769002  0.9888104774643907
  0.4547545130479165  0.5003783406918529  0.2375704369070064
  0.9547328356118854  0.4996037583327748  0.2375750470099831
  0.4547328356118854  0.9996037583327748  0.2375750470099831
  0.9547545130479165  0.0003783406918529  0.2375704369070064
  0.4547545130479165  0.5003783406918529  0.7375704369070064
  0.9547328356118854  0.4996037583327748  0.7375750470099831
  0.4547328356118854  0.9996037583327748  0.7375750470099831
  0.9547545130479165  0.0003783406918529  0.7375704369070064
  0.4636466568728750  0.2499762427887546  0.0091991855809752
  0.9356242222549156  0.2499817783023275  0.0144652498874436
  0.4356242222549156  0.7499817783023275  0.0144652498874436
  0.9636466568728750  0.7499762427887546  0.0091991855809752
  0.4636466568728750  0.2499762427887546  0.5091991855809752
  0.9356242222549156  0.2499817783023275  0.5144652498874436
  0.4356242222549156  0.7499817783023275  0.5144652498874436
  0.9636466568728750  0.7499762427887546  0.5091991855809752
  0.2161748205986882  0.4832741126060327  0.4612396993464714
  0.7161680562818873  0.5167207601115109  0.4612397043407412
  0.2161680562818873  0.0167207601115109  0.4612397043407412
  0.7161748205986882  0.9832741126060327  0.4612396993464714
  0.2161748205986882  0.4832741126060327  0.9612396993464714
  0.7161680562818873  0.5167207601115109  0.9612397043407412
  0.2161680562818873  0.0167207601115109  0.9612397043407412
  0.7161748205986882  0.9832741126060327  0.9612396993464714
 
  0.00000000E+00  0.00000000E+00  0.00000000E+00
  0.00000000E+00  0.00000000E+00  0.00000000E+00
  0.00000000E+00  0.00000000E+00  0.00000000E+00
  0.00000000E+00  0.00000000E+00  0.00000000E+00
  0.00000000E+00  0.00000000E+00  0.00000000E+00
  0.00000000E+00  0.00000000E+00  0.00000000E+00
  0.00000000E+00  0.00000000E+00  0.00000000E+00
  0.00000000E+00  0.00000000E+00  0.00000000E+00
  0.00000000E+00  0.00000000E+00  0.00000000E+00
  0.00000000E+00  0.00000000E+00  0.00000000E+00
  0.00000000E+00  0.00000000E+00  0.00000000E+00
  0.00000000E+00  0.00000000E+00  0.00000000E+00
  0.00000000E+00  0.00000000E+00  0.00000000E+00
  0.00000000E+00  0.00000000E+00  0.00000000E+00
  0.00000000E+00  0.00000000E+00  0.00000000E+00
  0.00000000E+00  0.00000000E+00  0.00000000E+00
  0.00000000E+00  0.00000000E+00  0.00000000E+00
  0.00000000E+00  0.00000000E+00  0.00000000E+00
  0.00000000E+00  0.00000000E+00  0.00000000E+00
  0.00000000E+00  0.00000000E+00  0.00000000E+00
  0.00000000E+00  0.00000000E+00  0.00000000E+00
  0.00000000E+00  0.00000000E+00  0.00000000E+00
  0.00000000E+00  0.00000000E+00  0.00000000E+00
  0.00000000E+00  0.00000000E+00  0.00000000E+00
  0.00000000E+00  0.00000000E+00  0.00000000E+00
  0.00000000E+00  0.00000000E+00  0.00000000E+00
  0.00000000E+00  0.00000000E+00  0.00000000E+00
  0.00000000E+00  0.00000000E+00  0.00000000E+00
  0.00000000E+00  0.00000000E+00  0.00000000E+00
  0.00000000E+00  0.00000000E+00  0.00000000E+00
  0.00000000E+00  0.00000000E+00  0.00000000E+00
  0.00000000E+00  0.00000000E+00  0.00000000E+00
  0.00000000E+00  0.00000000E+00  0.00000000E+00
  0.00000000E+00  0.00000000E+00  0.00000000E+00
  0.00000000E+00  0.00000000E+00  0.00000000E+00
  0.00000000E+00  0.00000000E+00  0.00000000E+00
  0.00000000E+00  0.00000000E+00  0.00000000E+00
  0.00000000E+00  0.00000000E+00  0.00000000E+00
  0.00000000E+00  0.00000000E+00  0.00000000E+00
  0.00000000E+00  0.00000000E+00  0.00000000E+00
  0.00000000E+00  0.00000000E+00  0.00000000E+00
  0.00000000E+00  0.00000000E+00  0.00000000E+00
  0.00000000E+00  0.00000000E+00  0.00000000E+00
  0.00000000E+00  0.00000000E+00  0.00000000E+00
  0.00000000E+00  0.00000000E+00  0.00000000E+00
  0.00000000E+00  0.00000000E+00  0.00000000E+00
  0.00000000E+00  0.00000000E+00  0.00000000E+00
  0.00000000E+00  0.00000000E+00  0.00000000E+00
  0.00000000E+00  0.00000000E+00  0.00000000E+00
  0.00000000E+00  0.00000000E+00  0.00000000E+00
  0.00000000E+00  0.00000000E+00  0.00000000E+00
  0.00000000E+00  0.00000000E+00  0.00000000E+00
  0.00000000E+00  0.00000000E+00  0.00000000E+00
  0.00000000E+00  0.00000000E+00  0.00000000E+00
  0.00000000E+00  0.00000000E+00  0.00000000E+00
  0.00000000E+00  0.00000000E+00  0.00000000E+00
  0.00000000E+00  0.00000000E+00  0.00000000E+00
  0.00000000E+00  0.00000000E+00  0.00000000E+00
  0.00000000E+00  0.00000000E+00  0.00000000E+00
  0.00000000E+00  0.00000000E+00  0.00000000E+00
  0.00000000E+00  0.00000000E+00  0.00000000E+00
  0.00000000E+00  0.00000000E+00  0.00000000E+00
  0.00000000E+00  0.00000000E+00  0.00000000E+00
  0.00000000E+00  0.00000000E+00  0.00000000E+00
  0.00000000E+00  0.00000000E+00  0.00000000E+00
  0.00000000E+00  0.00000000E+00  0.00000000E+00
  0.00000000E+00  0.00000000E+00  0.00000000E+00
  0.00000000E+00  0.00000000E+00  0.00000000E+00
  0.00000000E+00  0.00000000E+00  0.00000000E+00
  0.00000000E+00  0.00000000E+00  0.00000000E+00
  0.00000000E+00  0.00000000E+00  0.00000000E+00
  0.00000000E+00  0.00000000E+00  0.00000000E+00
  0.00000000E+00  0.00000000E+00  0.00000000E+00
  0.00000000E+00  0.00000000E+00  0.00000000E+00
  0.00000000E+00  0.00000000E+00  0.00000000E+00
  0.00000000E+00  0.00000000E+00  0.00000000E+00
  0.00000000E+00  0.00000000E+00  0.00000000E+00
  0.00000000E+00  0.00000000E+00  0.00000000E+00
  0.00000000E+00  0.00000000E+00  0.00000000E+00
  0.00000000E+00  0.00000000E+00  0.00000000E+00
  0.00000000E+00  0.00000000E+00  0.00000000E+00
  0.00000000E+00  0.00000000E+00  0.00000000E+00
  0.00000000E+00  0.00000000E+00  0.00000000E+00
  0.00000000E+00  0.00000000E+00  0.00000000E+00
  0.00000000E+00  0.00000000E+00  0.00000000E+00
  0.00000000E+00  0.00000000E+00  0.00000000E+00
  0.00000000E+00  0.00000000E+00  0.00000000E+00
  0.00000000E+00  0.00000000E+00  0.00000000E+00
  0.00000000E+00  0.00000000E+00  0.00000000E+00
  0.00000000E+00  0.00000000E+00  0.00000000E+00
  0.00000000E+00  0.00000000E+00  0.00000000E+00
  0.00000000E+00  0.00000000E+00  0.00000000E+00
  0.00000000E+00  0.00000000E+00  0.00000000E+00
  0.00000000E+00  0.00000000E+00  0.00000000E+00
  0.00000000E+00  0.00000000E+00  0.00000000E+00
  0.00000000E+00  0.00000000E+00  0.00000000E+00
