C N H Pb I
   1.0
    12.5768374277686394    0.0019159116494978    0.1381987933539664
     0.0011956322447466   12.4575380825249127   -0.0007464134870236
     0.1394107043392118    0.0000890449825412   12.7474206252920563
C   N   H  Pb   I
   8    8   48    8   24
Direct
  0.2014546162664283  0.2499268745752086  0.2219682581801808
  0.6925336485588678  0.2498896756533998  0.2358624505009131
  0.1925336485588677  0.7498896756533998  0.2358624505009131
  0.7014546162664282  0.7499268745752087  0.2219682581801808
  0.2014546162664283  0.2499268745752086  0.7219682581801807
  0.6925336485588677  0.2498896756533998  0.7358624505009130
  0.1925336485588677  0.7498896756533999  0.7358624505009130
  0.7014546162664282  0.7499268745752086  0.7219682581801807
  0.3057647028618498  0.2500177514792069  0.2742772473440536
  0.8033097349715851  0.2499895297539597  0.2734913456045536
  0.3033097349715851  0.7499895297539596  0.2734913456045536
  0.8057647028618496  0.7500177514792068  0.2742772473440536
  0.3057647028618497  0.2500177514792069  0.7742772473440536
  0.8033097349715850  0.2499895297539598  0.7734913456045536
  0.3033097349715851  0.7499895297539597  0.7734913456045536
  0.8057647028618496  0.7500177514792068  0.7742772473440536
  0.2155706737093021  0.2498205050163875  0.1363635859098472
  0.6945796607642042  0.2498216876316733  0.1494136659835812
  0.1945796607642043  0.7498216876316732  0.1494136659835811
  0.7155706737093019  0.7498205050163874  0.1363635859098472
  0.2155706737093020  0.2498205050163874  0.6363635859098471
  0.6945796607642042  0.2498216876316733  0.6494136659835812
  0.1945796607642043  0.7498216876316731  0.6494136659835812
  0.7155706737093019  0.7498205050163875  0.6363635859098471
  0.1571257611580673  0.3224215763777908  0.2457816729611311
  0.6515498521987798  0.3222827970029639  0.2652489655315036
  0.1515498521987798  0.8222827970029639  0.2652489655315036
  0.6571257611580673  0.8224215763777908  0.2457816729611311
  0.1571257611580673  0.3224215763777908  0.7457816729611312
  0.6515498521987796  0.3222827970029639  0.7652489655315036
  0.1515498521987798  0.8222827970029639  0.7652489655315036
  0.6571257611580671  0.8224215763777908  0.7457816729611312
  0.1572024712077750  0.1774654200617025  0.2459499486984868
  0.6516831960706920  0.1774867268886222  0.2653514647221385
  0.1516831960706922  0.6774867268886221  0.2653514647221385
  0.6572024712077748  0.6774654200617024  0.2459499486984868
  0.1572024712077750  0.1774654200617025  0.7459499486984869
  0.6516831960706921  0.1774867268886222  0.7653514647221384
  0.1516831960706922  0.6774867268886221  0.7653514647221384
  0.6572024712077749  0.6774654200617024  0.7459499486984869
  0.3507744000444467  0.3180230422713125  0.2540729816288473
  0.8454947547089624  0.3177255235431329  0.2474400003376306
  0.3454947547089625  0.8177255235431329  0.2474400003376306
  0.8507744000444466  0.8180230422713124  0.2540729816288473
  0.3507744000444467  0.3180230422713126  0.7540729816288474
  0.8454947547089624  0.3177255235431330  0.7474400003376306
  0.3454947547089625  0.8177255235431329  0.7474400003376306
  0.8507744000444463  0.8180230422713125  0.7540729816288473
  0.3508176211189248  0.1819625241091499  0.2542416930034099
  0.8455929793881539  0.1822472508335155  0.2475401066517174
  0.3455929793881541  0.6822472508335155  0.2475401066517173
  0.8508176211189246  0.6819625241091499  0.2542416930034099
  0.3508176211189248  0.1819625241091499  0.7542416930034099
  0.8455929793881539  0.1822472508335155  0.7475401066517173
  0.3455929793881541  0.6822472508335155  0.7475401066517172
  0.8508176211189246  0.6819625241091498  0.7542416930034099
  0.2981609837478110  0.2501320805789970  0.3558079705958467
  0.8081791621982169  0.2500549628599446  0.3554105187438177
  0.3081791621982169  0.7500549628599447  0.3554105187438177
  0.7981609837478107  0.7501320805789972  0.3558079705958467
  0.2981609837478110  0.2501320805789971  0.8558079705958468
  0.8081791621982169  0.2500549628599446  0.8554105187438178
  0.3081791621982169  0.7500549628599446  0.8554105187438178
  0.7981609837478109  0.7501320805789971  0.8558079705958467
  0.4724456862341526  0.5007171515768967  0.4888104774643892
  0.9724378657235703  0.4992624381529715  0.4888124165652186
  0.4724378657235703  0.9992624381529714  0.4888124165652187
  0.9724456862341524  0.0007171515768967  0.4888104774643892
  0.4724456862341526  0.5007171515768967  0.9888104774643893
  0.9724378657235702  0.4992624381529714  0.9888124165652187
  0.4724378657235703  0.9992624381529714  0.9888124165652187
  0.9724456862341524  0.0007171515768967  0.9888104774643894
  0.4547545130479180  0.5003783406918546  0.2375704369070082
  0.9547328356118836  0.4996037583327730  0.2375750470099814
  0.4547328356118838  0.9996037583327729  0.2375750470099814
  0.9547545130479179  0.0003783406918545  0.2375704369070082
  0.4547545130479180  0.5003783406918545  0.7375704369070081
  0.9547328356118835  0.4996037583327730  0.7375750470099814
  0.4547328356118838  0.9996037583327729  0.7375750470099814
  0.9547545130479180  0.0003783406918545  0.7375704369070081
  0.4636466568728760  0.2499762427887525  0.0091991855809766
  0.9356242222549143  0.2499817783023296  0.0144652498874422
  0.4356242222549143  0.7499817783023295  0.0144652498874422
  0.9636466568728760  0.7499762427887524  0.0091991855809766
  0.4636466568728760  0.2499762427887525  0.5091991855809765
  0.9356242222549143  0.2499817783023295  0.5144652498874421
  0.4356242222549143  0.7499817783023296  0.5144652498874421
  0.9636466568728760  0.7499762427887524  0.5091991855809767
  0.2161748205986897  0.4832741126060322  0.4612396993464692
  0.7161680562818856  0.5167207601115115  0.4612397043407435
  0.2161680562818857  0.0167207601115111  0.4612397043407435
  0.7161748205986894  0.9832741126060320  0.4612396993464692
  0.2161748205986897  0.4832741126060322  0.9612396993464692
  0.7161680562818857  0.5167207601115114  0.9612397043407435
  0.2161680562818857  0.0167207601115114  0.9612397043407436
  0.7161748205986895  0.9832741126060320  0.9612396993464691
